p sp 49 168
a 1 2 9
a 2 1 16
a 1 8 8
a 8 1 1
a 2 3 3
a 3 2 1
a 2 9 18
a 9 2 14
a 3 4 17
a 4 3 16
a 3 10 12
a 10 3 10
a 4 5 13
a 5 4 1
a 4 11 22
a 11 4 20
a 5 6 16
a 6 5 14
a 5 12 10
a 12 5 19
a 6 7 1
a 7 6 13
a 6 13 1
a 13 6 8
a 7 14 12
a 14 7 6
a 8 9 11
a 9 8 11
a 8 15 17
a 15 8 19
a 9 10 11
a 10 9 15
a 9 16 1
a 16 9 13
a 10 11 8
a 11 10 6
a 10 17 2
a 17 10 17
a 11 12 16
a 12 11 5
a 11 18 1
a 18 11 17
a 12 13 9
a 13 12 6
a 12 19 1
a 19 12 1
a 13 14 13
a 14 13 8
a 13 20 4
a 20 13 5
a 14 21 17
a 21 14 16
a 15 16 8
a 16 15 20
a 15 22 17
a 22 15 4
a 16 17 4
a 17 16 4
a 16 23 10
a 23 16 1
a 17 18 22
a 18 17 14
a 17 24 16
a 24 17 14
a 18 19 5
a 19 18 13
a 18 25 2
a 25 18 1
a 19 20 5
a 20 19 8
a 19 26 16
a 26 19 4
a 20 21 6
a 21 20 20
a 20 27 8
a 27 20 5
a 21 28 5
a 28 21 12
a 22 23 16
a 23 22 18
a 22 29 3
a 29 22 3
a 23 24 13
a 24 23 19
a 23 30 18
a 30 23 18
a 24 25 1
a 25 24 22
a 24 31 17
a 31 24 11
a 25 26 18
a 26 25 3
a 25 32 17
a 32 25 15
a 26 27 11
a 27 26 9
a 26 33 1
a 33 26 13
a 27 28 4
a 28 27 14
a 27 34 12
a 34 27 12
a 28 35 12
a 35 28 14
a 29 30 11
a 30 29 2
a 29 36 9
a 36 29 6
a 30 31 6
a 31 30 15
a 30 37 1
a 37 30 17
a 31 32 16
a 32 31 18
a 31 38 12
a 38 31 9
a 32 33 21
a 33 32 5
a 32 39 2
a 39 32 1
a 33 34 1
a 34 33 4
a 33 40 14
a 40 33 6
a 34 35 4
a 35 34 4
a 34 41 11
a 41 34 3
a 35 42 7
a 42 35 15
a 36 37 10
a 37 36 10
a 36 43 15
a 43 36 11
a 37 38 1
a 38 37 19
a 37 44 5
a 44 37 8
a 38 39 9
a 39 38 17
a 38 45 13
a 45 38 15
a 39 40 17
a 40 39 12
a 39 46 9
a 46 39 17
a 40 41 12
a 41 40 3
a 40 47 9
a 47 40 1
a 41 42 1
a 42 41 13
a 41 48 8
a 48 41 9
a 42 49 14
a 49 42 1
a 43 44 14
a 44 43 2
a 44 45 8
a 45 44 7
a 45 46 11
a 46 45 14
a 46 47 1
a 47 46 5
a 47 48 16
a 48 47 19
a 48 49 1
a 49 48 7
