p sp 49 168
a 1 2 2
a 2 1 8
a 1 8 4
a 8 1 1
a 2 3 1
a 3 2 7
a 2 9 8
a 9 2 15
a 3 4 9
a 4 3 13
a 3 10 1
a 10 3 17
a 4 5 10
a 5 4 8
a 4 11 1
a 11 4 14
a 5 6 1
a 6 5 1
a 5 12 17
a 12 5 11
a 6 7 1
a 7 6 1
a 6 13 8
a 13 6 1
a 7 14 1
a 14 7 9
a 8 9 19
a 9 8 1
a 8 15 3
a 15 8 1
a 9 10 4
a 10 9 13
a 9 16 8
a 16 9 1
a 10 11 4
a 11 10 14
a 10 17 1
a 17 10 20
a 11 12 18
a 12 11 1
a 11 18 20
a 18 11 4
a 12 13 17
a 13 12 3
a 12 19 20
a 19 12 3
a 13 14 1
a 14 13 15
a 13 20 17
a 20 13 16
a 14 21 1
a 21 14 12
a 15 16 10
a 16 15 11
a 15 22 3
a 22 15 7
a 16 17 3
a 17 16 5
a 16 23 11
a 23 16 1
a 17 18 20
a 18 17 1
a 17 24 1
a 24 17 1
a 18 19 11
a 19 18 1
a 18 25 3
a 25 18 7
a 19 20 15
a 20 19 14
a 19 26 13
a 26 19 5
a 20 21 12
a 21 20 13
a 20 27 20
a 27 20 13
a 21 28 1
a 28 21 20
a 22 23 1
a 23 22 2
a 22 29 12
a 29 22 20
a 23 24 4
a 24 23 1
a 23 30 16
a 30 23 19
a 24 25 19
a 25 24 1
a 24 31 18
a 31 24 5
a 25 26 4
a 26 25 17
a 25 32 4
a 32 25 17
a 26 27 16
a 27 26 6
a 26 33 4
a 33 26 4
a 27 28 1
a 28 27 15
a 27 34 7
a 34 27 18
a 28 35 5
a 35 28 1
a 29 30 9
a 30 29 1
a 29 36 10
a 36 29 18
a 30 31 15
a 31 30 9
a 30 37 12
a 37 30 19
a 31 32 14
a 32 31 7
a 31 38 16
a 38 31 14
a 32 33 5
a 33 32 20
a 32 39 8
a 39 32 4
a 33 34 19
a 34 33 14
a 33 40 6
a 40 33 7
a 34 35 17
a 35 34 1
a 34 41 1
a 41 34 21
a 35 42 14
a 42 35 19
a 36 37 3
a 37 36 10
a 36 43 1
a 43 36 1
a 37 38 17
a 38 37 11
a 37 44 19
a 44 37 1
a 38 39 4
a 39 38 3
a 38 45 21
a 45 38 9
a 39 40 15
a 40 39 5
a 39 46 1
a 46 39 15
a 40 41 4
a 41 40 7
a 40 47 2
a 47 40 20
a 41 42 19
a 42 41 6
a 41 48 15
a 48 41 2
a 42 49 1
a 49 42 4
a 43 44 3
a 44 43 21
a 44 45 8
a 45 44 10
a 45 46 18
a 46 45 1
a 46 47 3
a 47 46 6
a 47 48 10
a 48 47 4
a 48 49 2
a 49 48 7
