p sp 49 168
a 1 2 15
a 2 1 8
a 1 8 2
a 8 1 9
a 2 3 9
a 3 2 8
a 2 9 1
a 9 2 11
a 3 4 5
a 4 3 20
a 3 10 12
a 10 3 8
a 4 5 13
a 5 4 11
a 4 11 18
a 11 4 2
a 5 6 18
a 6 5 3
a 5 12 7
a 12 5 18
a 6 7 14
a 7 6 4
a 6 13 15
a 13 6 5
a 7 14 17
a 14 7 21
a 8 9 19
a 9 8 6
a 8 15 21
a 15 8 1
a 9 10 14
a 10 9 18
a 9 16 1
a 16 9 21
a 10 11 13
a 11 10 16
a 10 17 14
a 17 10 4
a 11 12 22
a 12 11 7
a 11 18 1
a 18 11 17
a 12 13 1
a 13 12 15
a 12 19 14
a 19 12 3
a 13 14 1
a 14 13 10
a 13 20 1
a 20 13 12
a 14 21 10
a 21 14 19
a 15 16 4
a 16 15 1
a 15 22 1
a 22 15 16
a 16 17 16
a 17 16 5
a 16 23 14
a 23 16 4
a 17 18 9
a 18 17 21
a 17 24 8
a 24 17 20
a 18 19 14
a 19 18 8
a 18 25 21
a 25 18 10
a 19 20 16
a 20 19 6
a 19 26 12
a 26 19 1
a 20 21 2
a 21 20 8
a 20 27 18
a 27 20 5
a 21 28 19
a 28 21 14
a 22 23 19
a 23 22 1
a 22 29 13
a 29 22 9
a 23 24 18
a 24 23 15
a 23 30 1
a 30 23 19
a 24 25 1
a 25 24 7
a 24 31 7
a 31 24 8
a 25 26 12
a 26 25 5
a 25 32 9
a 32 25 13
a 26 27 16
a 27 26 18
a 26 33 3
a 33 26 9
a 27 28 1
a 28 27 11
a 27 34 10
a 34 27 13
a 28 35 6
a 35 28 12
a 29 30 10
a 30 29 15
a 29 36 9
a 36 29 1
a 30 31 18
a 31 30 15
a 30 37 14
a 37 30 15
a 31 32 20
a 32 31 14
a 31 38 4
a 38 31 3
a 32 33 9
a 33 32 14
a 32 39 1
a 39 32 15
a 33 34 5
a 34 33 2
a 33 40 11
a 40 33 9
a 34 35 4
a 35 34 16
a 34 41 5
a 41 34 5
a 35 42 1
a 42 35 10
a 36 37 15
a 37 36 1
a 36 43 1
a 43 36 3
a 37 38 5
a 38 37 12
a 37 44 5
a 44 37 12
a 38 39 9
a 39 38 4
a 38 45 15
a 45 38 1
a 39 40 19
a 40 39 1
a 39 46 3
a 46 39 14
a 40 41 17
a 41 40 6
a 40 47 5
a 47 40 14
a 41 42 10
a 42 41 14
a 41 48 19
a 48 41 13
a 42 49 12
a 49 42 6
a 43 44 19
a 44 43 22
a 44 45 3
a 45 44 2
a 45 46 19
a 46 45 1
a 46 47 1
a 47 46 15
a 47 48 19
a 48 47 1
a 48 49 14
a 49 48 7
