p sp 49 168
a 1 2 9
a 2 1 1
a 1 8 1
a 8 1 14
a 2 3 14
a 3 2 16
a 2 9 10
a 9 2 9
a 3 4 11
a 4 3 11
a 3 10 7
a 10 3 20
a 4 5 1
a 5 4 8
a 4 11 12
a 11 4 20
a 5 6 10
a 6 5 12
a 5 12 1
a 12 5 2
a 6 7 1
a 7 6 17
a 6 13 1
a 13 6 15
a 7 14 1
a 14 7 8
a 8 9 4
a 9 8 18
a 8 15 1
a 15 8 11
a 9 10 9
a 10 9 9
a 9 16 7
a 16 9 13
a 10 11 5
a 11 10 19
a 10 17 16
a 17 10 11
a 11 12 10
a 12 11 8
a 11 18 15
a 18 11 5
a 12 13 1
a 13 12 1
a 12 19 14
a 19 12 5
a 13 14 15
a 14 13 5
a 13 20 11
a 20 13 11
a 14 21 4
a 21 14 22
a 15 16 11
a 16 15 6
a 15 22 5
a 22 15 14
a 16 17 2
a 17 16 12
a 16 23 13
a 23 16 7
a 17 18 15
a 18 17 9
a 17 24 1
a 24 17 18
a 18 19 16
a 19 18 1
a 18 25 2
a 25 18 2
a 19 20 1
a 20 19 1
a 19 26 5
a 26 19 12
a 20 21 10
a 21 20 20
a 20 27 10
a 27 20 16
a 21 28 7
a 28 21 19
a 22 23 10
a 23 22 14
a 22 29 1
a 29 22 12
a 23 24 17
a 24 23 19
a 23 30 11
a 30 23 10
a 24 25 15
a 25 24 20
a 24 31 18
a 31 24 14
a 25 26 1
a 26 25 16
a 25 32 13
a 32 25 11
a 26 27 1
a 27 26 18
a 26 33 15
a 33 26 13
a 27 28 18
a 28 27 10
a 27 34 14
a 34 27 2
a 28 35 1
a 35 28 1
a 29 30 10
a 30 29 13
a 29 36 3
a 36 29 20
a 30 31 6
a 31 30 13
a 30 37 1
a 37 30 1
a 31 32 6
a 32 31 1
a 31 38 5
a 38 31 5
a 32 33 5
a 33 32 1
a 32 39 1
a 39 32 14
a 33 34 1
a 34 33 19
a 33 40 11
a 40 33 15
a 34 35 7
a 35 34 12
a 34 41 5
a 41 34 5
a 35 42 2
a 42 35 2
a 36 37 15
a 37 36 5
a 36 43 1
a 43 36 5
a 37 38 12
a 38 37 18
a 37 44 1
a 44 37 8
a 38 39 5
a 39 38 8
a 38 45 9
a 45 38 11
a 39 40 1
a 40 39 16
a 39 46 4
a 46 39 17
a 40 41 20
a 41 40 14
a 40 47 2
a 47 40 1
a 41 42 8
a 42 41 19
a 41 48 7
a 48 41 14
a 42 49 13
a 49 42 3
a 43 44 17
a 44 43 8
a 44 45 11
a 45 44 17
a 45 46 19
a 46 45 15
a 46 47 2
a 47 46 1
a 47 48 3
a 48 47 11
a 48 49 19
a 49 48 5
