p sp 49 168
a 1 2 1
a 2 1 1
a 1 8 1
a 8 1 1
a 2 3 17
a 3 2 3
a 2 9 12
a 9 2 1
a 3 4 19
a 4 3 6
a 3 10 19
a 10 3 5
a 4 5 1
a 5 4 14
a 4 11 1
a 11 4 1
a 5 6 11
a 6 5 1
a 5 12 10
a 12 5 20
a 6 7 14
a 7 6 17
a 6 13 9
a 13 6 3
a 7 14 17
a 14 7 22
a 8 9 4
a 9 8 8
a 8 15 21
a 15 8 11
a 9 10 3
a 10 9 20
a 9 16 20
a 16 9 3
a 10 11 17
a 11 10 9
a 10 17 16
a 17 10 8
a 11 12 1
a 12 11 13
a 11 18 4
a 18 11 16
a 12 13 21
a 13 12 12
a 12 19 12
a 19 12 5
a 13 14 19
a 14 13 3
a 13 20 14
a 20 13 4
a 14 21 2
a 21 14 16
a 15 16 1
a 16 15 5
a 15 22 11
a 22 15 13
a 16 17 1
a 17 16 1
a 16 23 1
a 23 16 1
a 17 18 13
a 18 17 11
a 17 24 3
a 24 17 12
a 18 19 19
a 19 18 5
a 18 25 2
a 25 18 13
a 19 20 1
a 20 19 1
a 19 26 13
a 26 19 1
a 20 21 1
a 21 20 19
a 20 27 2
a 27 20 13
a 21 28 15
a 28 21 1
a 22 23 6
a 23 22 21
a 22 29 1
a 29 22 14
a 23 24 1
a 24 23 1
a 23 30 15
a 30 23 4
a 24 25 13
a 25 24 4
a 24 31 11
a 31 24 4
a 25 26 4
a 26 25 15
a 25 32 16
a 32 25 15
a 26 27 1
a 27 26 19
a 26 33 16
a 33 26 10
a 27 28 16
a 28 27 1
a 27 34 2
a 34 27 9
a 28 35 14
a 35 28 7
a 29 30 9
a 30 29 10
a 29 36 21
a 36 29 2
a 30 31 3
a 31 30 6
a 30 37 10
a 37 30 1
a 31 32 5
a 32 31 13
a 31 38 20
a 38 31 8
a 32 33 21
a 33 32 4
a 32 39 1
a 39 32 2
a 33 34 1
a 34 33 12
a 33 40 2
a 40 33 3
a 34 35 2
a 35 34 18
a 34 41 6
a 41 34 1
a 35 42 8
a 42 35 1
a 36 37 1
a 37 36 6
a 36 43 9
a 43 36 9
a 37 38 11
a 38 37 1
a 37 44 10
a 44 37 1
a 38 39 5
a 39 38 18
a 38 45 4
a 45 38 14
a 39 40 5
a 40 39 1
a 39 46 1
a 46 39 7
a 40 41 4
a 41 40 1
a 40 47 10
a 47 40 10
a 41 42 2
a 42 41 5
a 41 48 11
a 48 41 1
a 42 49 6
a 49 42 2
a 43 44 12
a 44 43 8
a 44 45 17
a 45 44 2
a 45 46 4
a 46 45 20
a 46 47 4
a 47 46 1
a 47 48 16
a 48 47 13
a 48 49 6
a 49 48 8
