p sp 49 168
a 1 2 13
a 2 1 8
a 1 8 19
a 8 1 1
a 2 3 8
a 3 2 19
a 2 9 17
a 9 2 2
a 3 4 13
a 4 3 20
a 3 10 18
a 10 3 4
a 4 5 13
a 5 4 1
a 4 11 14
a 11 4 11
a 5 6 1
a 6 5 1
a 5 12 9
a 12 5 13
a 6 7 14
a 7 6 17
a 6 13 4
a 13 6 8
a 7 14 5
a 14 7 11
a 8 9 17
a 9 8 11
a 8 15 16
a 15 8 13
a 9 10 12
a 10 9 13
a 9 16 9
a 16 9 16
a 10 11 17
a 11 10 1
a 10 17 19
a 17 10 22
a 11 12 11
a 12 11 10
a 11 18 1
a 18 11 15
a 12 13 18
a 13 12 13
a 12 19 4
a 19 12 3
a 13 14 1
a 14 13 10
a 13 20 6
a 20 13 11
a 14 21 4
a 21 14 18
a 15 16 16
a 16 15 14
a 15 22 1
a 22 15 1
a 16 17 12
a 17 16 1
a 16 23 1
a 23 16 16
a 17 18 13
a 18 17 1
a 17 24 20
a 24 17 1
a 18 19 19
a 19 18 12
a 18 25 1
a 25 18 1
a 19 20 8
a 20 19 20
a 19 26 1
a 26 19 3
a 20 21 1
a 21 20 6
a 20 27 8
a 27 20 1
a 21 28 20
a 28 21 5
a 22 23 1
a 23 22 13
a 22 29 4
a 29 22 8
a 23 24 1
a 24 23 13
a 23 30 11
a 30 23 1
a 24 25 3
a 25 24 18
a 24 31 11
a 31 24 1
a 25 26 5
a 26 25 16
a 25 32 8
a 32 25 15
a 26 27 12
a 27 26 9
a 26 33 14
a 33 26 2
a 27 28 1
a 28 27 3
a 27 34 13
a 34 27 1
a 28 35 16
a 35 28 16
a 29 30 20
a 30 29 1
a 29 36 16
a 36 29 4
a 30 31 4
a 31 30 12
a 30 37 12
a 37 30 2
a 31 32 7
a 32 31 19
a 31 38 4
a 38 31 21
a 32 33 1
a 33 32 10
a 32 39 9
a 39 32 19
a 33 34 5
a 34 33 1
a 33 40 17
a 40 33 20
a 34 35 2
a 35 34 6
a 34 41 5
a 41 34 14
a 35 42 15
a 42 35 4
a 36 37 16
a 37 36 6
a 36 43 13
a 43 36 4
a 37 38 3
a 38 37 6
a 37 44 13
a 44 37 4
a 38 39 5
a 39 38 16
a 38 45 2
a 45 38 8
a 39 40 1
a 40 39 19
a 39 46 1
a 46 39 3
a 40 41 1
a 41 40 17
a 40 47 5
a 47 40 20
a 41 42 3
a 42 41 19
a 41 48 17
a 48 41 1
a 42 49 6
a 49 42 7
a 43 44 5
a 44 43 1
a 44 45 1
a 45 44 8
a 45 46 14
a 46 45 1
a 46 47 7
a 47 46 17
a 47 48 16
a 48 47 1
a 48 49 18
a 49 48 21
