p sp 64 224
a 1 2 9
a 2 1 17
a 1 9 11
a 9 1 1
a 2 3 1
a 3 2 13
a 2 10 10
a 10 2 8
a 3 4 14
a 4 3 1
a 3 11 10
a 11 3 6
a 4 5 12
a 5 4 18
a 4 12 14
a 12 4 9
a 5 6 22
a 6 5 1
a 5 13 11
a 13 5 10
a 6 7 6
a 7 6 2
a 6 14 17
a 14 6 4
a 7 8 13
a 8 7 17
a 7 15 6
a 15 7 5
a 8 16 6
a 16 8 4
a 9 10 16
a 10 9 1
a 9 17 17
a 17 9 8
a 10 11 13
a 11 10 4
a 10 18 4
a 18 10 8
a 11 12 21
a 12 11 6
a 11 19 6
a 19 11 5
a 12 13 17
a 13 12 6
a 12 20 19
a 20 12 8
a 13 14 1
a 14 13 2
a 13 21 9
a 21 13 16
a 14 15 14
a 15 14 9
a 14 22 1
a 22 14 15
a 15 16 7
a 16 15 17
a 15 23 5
a 23 15 1
a 16 24 4
a 24 16 16
a 17 18 1
a 18 17 6
a 17 25 1
a 25 17 7
a 18 19 4
a 19 18 14
a 18 26 1
a 26 18 1
a 19 20 6
a 20 19 13
a 19 27 22
a 27 19 1
a 20 21 14
a 21 20 6
a 20 28 16
a 28 20 5
a 21 22 8
a 22 21 2
a 21 29 17
a 29 21 14
a 22 23 16
a 23 22 15
a 22 30 5
a 30 22 1
a 23 24 1
a 24 23 8
a 23 31 4
a 31 23 1
a 24 32 12
a 32 24 1
a 25 26 1
a 26 25 19
a 25 33 1
a 33 25 11
a 26 27 19
a 27 26 1
a 26 34 18
a 34 26 8
a 27 28 1
a 28 27 13
a 27 35 10
a 35 27 17
a 28 29 10
a 29 28 1
a 28 36 3
a 36 28 1
a 29 30 5
a 30 29 15
a 29 37 3
a 37 29 16
a 30 31 3
a 31 30 2
a 30 38 4
a 38 30 22
a 31 32 6
a 32 31 1
a 31 39 6
a 39 31 1
a 32 40 15
a 40 32 9
a 33 34 2
a 34 33 6
a 33 41 14
a 41 33 1
a 34 35 9
a 35 34 13
a 34 42 14
a 42 34 19
a 35 36 16
a 36 35 4
a 35 43 17
a 43 35 19
a 36 37 15
a 37 36 5
a 36 44 12
a 44 36 10
a 37 38 1
a 38 37 15
a 37 45 7
a 45 37 11
a 38 39 20
a 39 38 14
a 38 46 2
a 46 38 1
a 39 40 11
a 40 39 6
a 39 47 15
a 47 39 9
a 40 48 16
a 48 40 13
a 41 42 1
a 42 41 1
a 41 49 11
a 49 41 15
a 42 43 3
a 43 42 1
a 42 50 21
a 50 42 9
a 43 44 8
a 44 43 1
a 43 51 13
a 51 43 7
a 44 45 6
a 45 44 8
a 44 52 14
a 52 44 7
a 45 46 14
a 46 45 4
a 45 53 3
a 53 45 10
a 46 47 6
a 47 46 13
a 46 54 1
a 54 46 18
a 47 48 18
a 48 47 3
a 47 55 14
a 55 47 10
a 48 56 8
a 56 48 11
a 49 50 4
a 50 49 12
a 49 57 3
a 57 49 18
a 50 51 14
a 51 50 13
a 50 58 8
a 58 50 2
a 51 52 5
a 52 51 14
a 51 59 15
a 59 51 6
a 52 53 1
a 53 52 1
a 52 60 1
a 60 52 14
a 53 54 2
a 54 53 17
a 53 61 3
a 61 53 1
a 54 55 9
a 55 54 1
a 54 62 16
a 62 54 7
a 55 56 15
a 56 55 16
a 55 63 1
a 63 55 15
a 56 64 22
a 64 56 7
a 57 58 10
a 58 57 17
a 58 59 18
a 59 58 13
a 59 60 10
a 60 59 3
a 60 61 5
a 61 60 18
a 61 62 1
a 62 61 15
a 62 63 16
a 63 62 1
a 63 64 17
a 64 63 9
