p sp 64 224
a 1 2 2
a 2 1 17
a 1 9 19
a 9 1 20
a 2 3 1
a 3 2 19
a 2 10 17
a 10 2 1
a 3 4 15
a 4 3 16
a 3 11 1
a 11 3 21
a 4 5 18
a 5 4 16
a 4 12 1
a 12 4 13
a 5 6 1
a 6 5 17
a 5 13 9
a 13 5 1
a 6 7 1
a 7 6 8
a 6 14 1
a 14 6 16
a 7 8 1
a 8 7 1
a 7 15 19
a 15 7 10
a 8 16 18
a 16 8 1
a 9 10 1
a 10 9 7
a 9 17 3
a 17 9 18
a 10 11 9
a 11 10 12
a 10 18 18
a 18 10 18
a 11 12 13
a 12 11 14
a 11 19 14
a 19 11 3
a 12 13 1
a 13 12 20
a 12 20 1
a 20 12 4
a 13 14 14
a 14 13 15
a 13 21 17
a 21 13 6
a 14 15 1
a 15 14 1
a 14 22 6
a 22 14 11
a 15 16 3
a 16 15 1
a 15 23 16
a 23 15 15
a 16 24 2
a 24 16 19
a 17 18 1
a 18 17 13
a 17 25 5
a 25 17 15
a 18 19 3
a 19 18 4
a 18 26 1
a 26 18 1
a 19 20 2
a 20 19 18
a 19 27 10
a 27 19 7
a 20 21 1
a 21 20 6
a 20 28 2
a 28 20 12
a 21 22 2
a 22 21 7
a 21 29 1
a 29 21 6
a 22 23 13
a 23 22 6
a 22 30 19
a 30 22 1
a 23 24 16
a 24 23 1
a 23 31 15
a 31 23 19
a 24 32 20
a 32 24 15
a 25 26 3
a 26 25 11
a 25 33 1
a 33 25 17
a 26 27 18
a 27 26 15
a 26 34 16
a 34 26 18
a 27 28 12
a 28 27 3
a 27 35 1
a 35 27 16
a 28 29 16
a 29 28 9
a 28 36 17
a 36 28 14
a 29 30 1
a 30 29 15
a 29 37 1
a 37 29 14
a 30 31 15
a 31 30 7
a 30 38 1
a 38 30 17
a 31 32 5
a 32 31 11
a 31 39 8
a 39 31 1
a 32 40 1
a 40 32 10
a 33 34 1
a 34 33 10
a 33 41 9
a 41 33 3
a 34 35 4
a 35 34 13
a 34 42 1
a 42 34 15
a 35 36 14
a 36 35 17
a 35 43 1
a 43 35 2
a 36 37 8
a 37 36 19
a 36 44 1
a 44 36 1
a 37 38 4
a 38 37 1
a 37 45 9
a 45 37 1
a 38 39 3
a 39 38 17
a 38 46 5
a 46 38 16
a 39 40 1
a 40 39 3
a 39 47 18
a 47 39 16
a 40 48 1
a 48 40 7
a 41 42 6
a 42 41 1
a 41 49 1
a 49 41 3
a 42 43 7
a 43 42 5
a 42 50 12
a 50 42 13
a 43 44 5
a 44 43 2
a 43 51 21
a 51 43 16
a 44 45 14
a 45 44 4
a 44 52 1
a 52 44 1
a 45 46 17
a 46 45 16
a 45 53 7
a 53 45 8
a 46 47 10
a 47 46 22
a 46 54 3
a 54 46 7
a 47 48 6
a 48 47 14
a 47 55 1
a 55 47 1
a 48 56 7
a 56 48 4
a 49 50 6
a 50 49 12
a 49 57 18
a 57 49 19
a 50 51 1
a 51 50 2
a 50 58 7
a 58 50 18
a 51 52 17
a 52 51 2
a 51 59 20
a 59 51 6
a 52 53 6
a 53 52 6
a 52 60 17
a 60 52 20
a 53 54 1
a 54 53 17
a 53 61 20
a 61 53 15
a 54 55 15
a 55 54 19
a 54 62 8
a 62 54 15
a 55 56 12
a 56 55 6
a 55 63 13
a 63 55 2
a 56 64 20
a 64 56 1
a 57 58 13
a 58 57 4
a 58 59 9
a 59 58 12
a 59 60 19
a 60 59 7
a 60 61 1
a 61 60 1
a 61 62 1
a 62 61 1
a 62 63 16
a 63 62 22
a 63 64 19
a 64 63 4
