p sp 64 224
a 1 2 15
a 2 1 9
a 1 9 11
a 9 1 11
a 2 3 1
a 3 2 16
a 2 10 16
a 10 2 10
a 3 4 11
a 4 3 8
a 3 11 13
a 11 3 2
a 4 5 17
a 5 4 4
a 4 12 1
a 12 4 9
a 5 6 18
a 6 5 11
a 5 13 17
a 13 5 3
a 6 7 1
a 7 6 12
a 6 14 3
a 14 6 1
a 7 8 4
a 8 7 8
a 7 15 9
a 15 7 8
a 8 16 6
a 16 8 19
a 9 10 16
a 10 9 18
a 9 17 21
a 17 9 1
a 10 11 10
a 11 10 1
a 10 18 12
a 18 10 22
a 11 12 10
a 12 11 7
a 11 19 16
a 19 11 1
a 12 13 14
a 13 12 1
a 12 20 10
a 20 12 13
a 13 14 2
a 14 13 3
a 13 21 1
a 21 13 3
a 14 15 1
a 15 14 14
a 14 22 5
a 22 14 20
a 15 16 7
a 16 15 11
a 15 23 12
a 23 15 1
a 16 24 16
a 24 16 13
a 17 18 16
a 18 17 5
a 17 25 1
a 25 17 14
a 18 19 16
a 19 18 6
a 18 26 9
a 26 18 18
a 19 20 18
a 20 19 11
a 19 27 12
a 27 19 1
a 20 21 20
a 21 20 12
a 20 28 10
a 28 20 4
a 21 22 1
a 22 21 13
a 21 29 17
a 29 21 1
a 22 23 12
a 23 22 8
a 22 30 9
a 30 22 1
a 23 24 3
a 24 23 1
a 23 31 1
a 31 23 7
a 24 32 14
a 32 24 1
a 25 26 17
a 26 25 8
a 25 33 6
a 33 25 13
a 26 27 19
a 27 26 18
a 26 34 1
a 34 26 19
a 27 28 1
a 28 27 1
a 27 35 15
a 35 27 10
a 28 29 4
a 29 28 1
a 28 36 5
a 36 28 1
a 29 30 12
a 30 29 2
a 29 37 13
a 37 29 17
a 30 31 5
a 31 30 10
a 30 38 1
a 38 30 19
a 31 32 12
a 32 31 1
a 31 39 1
a 39 31 14
a 32 40 3
a 40 32 10
a 33 34 15
a 34 33 11
a 33 41 4
a 41 33 8
a 34 35 5
a 35 34 6
a 34 42 20
a 42 34 1
a 35 36 20
a 36 35 6
a 35 43 10
a 43 35 2
a 36 37 21
a 37 36 20
a 36 44 2
a 44 36 2
a 37 38 15
a 38 37 19
a 37 45 5
a 45 37 20
a 38 39 18
a 39 38 2
a 38 46 14
a 46 38 13
a 39 40 5
a 40 39 21
a 39 47 10
a 47 39 1
a 40 48 4
a 48 40 1
a 41 42 10
a 42 41 1
a 41 49 3
a 49 41 19
a 42 43 18
a 43 42 15
a 42 50 15
a 50 42 1
a 43 44 17
a 44 43 6
a 43 51 15
a 51 43 10
a 44 45 17
a 45 44 16
a 44 52 19
a 52 44 1
a 45 46 14
a 46 45 20
a 45 53 6
a 53 45 1
a 46 47 1
a 47 46 21
a 46 54 4
a 54 46 4
a 47 48 14
a 48 47 15
a 47 55 12
a 55 47 5
a 48 56 14
a 56 48 1
a 49 50 1
a 50 49 19
a 49 57 13
a 57 49 19
a 50 51 1
a 51 50 5
a 50 58 5
a 58 50 6
a 51 52 17
a 52 51 16
a 51 59 19
a 59 51 4
a 52 53 6
a 53 52 16
a 52 60 17
a 60 52 4
a 53 54 3
a 54 53 1
a 53 61 5
a 61 53 1
a 54 55 16
a 55 54 17
a 54 62 14
a 62 54 10
a 55 56 6
a 56 55 16
a 55 63 1
a 63 55 8
a 56 64 9
a 64 56 5
a 57 58 1
a 58 57 13
a 58 59 3
a 59 58 7
a 59 60 22
a 60 59 7
a 60 61 1
a 61 60 4
a 61 62 1
a 62 61 1
a 62 63 10
a 63 62 8
a 63 64 1
a 64 63 16
