p sp 64 224
a 1 2 3
a 2 1 1
a 1 9 5
a 9 1 1
a 2 3 1
a 3 2 16
a 2 10 20
a 10 2 11
a 3 4 15
a 4 3 10
a 3 11 17
a 11 3 1
a 4 5 9
a 5 4 18
a 4 12 14
a 12 4 15
a 5 6 1
a 6 5 17
a 5 13 20
a 13 5 1
a 6 7 11
a 7 6 2
a 6 14 12
a 14 6 16
a 7 8 10
a 8 7 1
a 7 15 7
a 15 7 1
a 8 16 6
a 16 8 1
a 9 10 14
a 10 9 9
a 9 17 21
a 17 9 10
a 10 11 14
a 11 10 12
a 10 18 1
a 18 10 1
a 11 12 16
a 12 11 19
a 11 19 7
a 19 11 17
a 12 13 1
a 13 12 16
a 12 20 6
a 20 12 13
a 13 14 1
a 14 13 14
a 13 21 15
a 21 13 1
a 14 15 12
a 15 14 3
a 14 22 12
a 22 14 1
a 15 16 7
a 16 15 15
a 15 23 17
a 23 15 2
a 16 24 19
a 24 16 13
a 17 18 18
a 18 17 4
a 17 25 1
a 25 17 13
a 18 19 4
a 19 18 13
a 18 26 13
a 26 18 1
a 19 20 20
a 20 19 3
a 19 27 1
a 27 19 2
a 20 21 4
a 21 20 17
a 20 28 6
a 28 20 3
a 21 22 1
a 22 21 20
a 21 29 8
a 29 21 1
a 22 23 4
a 23 22 15
a 22 30 5
a 30 22 12
a 23 24 6
a 24 23 7
a 23 31 1
a 31 23 15
a 24 32 11
a 32 24 9
a 25 26 1
a 26 25 11
a 25 33 4
a 33 25 8
a 26 27 1
a 27 26 1
a 26 34 9
a 34 26 9
a 27 28 2
a 28 27 1
a 27 35 14
a 35 27 21
a 28 29 1
a 29 28 1
a 28 36 3
a 36 28 9
a 29 30 11
a 30 29 16
a 29 37 11
a 37 29 4
a 30 31 14
a 31 30 8
a 30 38 2
a 38 30 14
a 31 32 11
a 32 31 16
a 31 39 12
a 39 31 14
a 32 40 18
a 40 32 9
a 33 34 18
a 34 33 4
a 33 41 1
a 41 33 14
a 34 35 16
a 35 34 7
a 34 42 11
a 42 34 1
a 35 36 20
a 36 35 1
a 35 43 2
a 43 35 13
a 36 37 21
a 37 36 8
a 36 44 8
a 44 36 1
a 37 38 4
a 38 37 1
a 37 45 3
a 45 37 8
a 38 39 4
a 39 38 5
a 38 46 1
a 46 38 19
a 39 40 16
a 40 39 5
a 39 47 1
a 47 39 17
a 40 48 11
a 48 40 15
a 41 42 7
a 42 41 9
a 41 49 3
a 49 41 14
a 42 43 11
a 43 42 20
a 42 50 11
a 50 42 1
a 43 44 5
a 44 43 17
a 43 51 11
a 51 43 12
a 44 45 20
a 45 44 8
a 44 52 9
a 52 44 17
a 45 46 3
a 46 45 4
a 45 53 7
a 53 45 1
a 46 47 14
a 47 46 22
a 46 54 13
a 54 46 9
a 47 48 16
a 48 47 1
a 47 55 17
a 55 47 4
a 48 56 20
a 56 48 18
a 49 50 10
a 50 49 19
a 49 57 9
a 57 49 3
a 50 51 1
a 51 50 4
a 50 58 15
a 58 50 11
a 51 52 21
a 52 51 12
a 51 59 19
a 59 51 8
a 52 53 7
a 53 52 1
a 52 60 6
a 60 52 13
a 53 54 17
a 54 53 5
a 53 61 20
a 61 53 7
a 54 55 2
a 55 54 19
a 54 62 7
a 62 54 1
a 55 56 9
a 56 55 16
a 55 63 14
a 63 55 7
a 56 64 4
a 64 56 1
a 57 58 5
a 58 57 4
a 58 59 4
a 59 58 16
a 59 60 8
a 60 59 1
a 60 61 7
a 61 60 3
a 61 62 16
a 62 61 4
a 62 63 12
a 63 62 13
a 63 64 3
a 64 63 12
