p sp 64 224
a 1 2 1
a 2 1 3
a 1 9 1
a 9 1 9
a 2 3 1
a 3 2 1
a 2 10 17
a 10 2 16
a 3 4 1
a 4 3 10
a 3 11 8
a 11 3 13
a 4 5 16
a 5 4 15
a 4 12 4
a 12 4 1
a 5 6 1
a 6 5 11
a 5 13 11
a 13 5 1
a 6 7 18
a 7 6 18
a 6 14 13
a 14 6 16
a 7 8 17
a 8 7 17
a 7 15 16
a 15 7 17
a 8 16 9
a 16 8 8
a 9 10 14
a 10 9 11
a 9 17 21
a 17 9 13
a 10 11 9
a 11 10 17
a 10 18 8
a 18 10 13
a 11 12 21
a 12 11 19
a 11 19 9
a 19 11 4
a 12 13 8
a 13 12 20
a 12 20 1
a 20 12 1
a 13 14 5
a 14 13 13
a 13 21 21
a 21 13 10
a 14 15 12
a 15 14 3
a 14 22 1
a 22 14 8
a 15 16 9
a 16 15 7
a 15 23 4
a 23 15 15
a 16 24 22
a 24 16 6
a 17 18 9
a 18 17 17
a 17 25 2
a 25 17 1
a 18 19 1
a 19 18 9
a 18 26 12
a 26 18 6
a 19 20 18
a 20 19 13
a 19 27 12
a 27 19 19
a 20 21 12
a 21 20 10
a 20 28 1
a 28 20 21
a 21 22 8
a 22 21 7
a 21 29 7
a 29 21 20
a 22 23 13
a 23 22 4
a 22 30 13
a 30 22 7
a 23 24 19
a 24 23 3
a 23 31 1
a 31 23 20
a 24 32 1
a 32 24 1
a 25 26 14
a 26 25 12
a 25 33 20
a 33 25 13
a 26 27 20
a 27 26 12
a 26 34 15
a 34 26 4
a 27 28 16
a 28 27 6
a 27 35 15
a 35 27 14
a 28 29 1
a 29 28 2
a 28 36 15
a 36 28 15
a 29 30 9
a 30 29 16
a 29 37 8
a 37 29 1
a 30 31 1
a 31 30 1
a 30 38 16
a 38 30 17
a 31 32 15
a 32 31 11
a 31 39 5
a 39 31 15
a 32 40 13
a 40 32 20
a 33 34 10
a 34 33 11
a 33 41 18
a 41 33 17
a 34 35 10
a 35 34 1
a 34 42 18
a 42 34 2
a 35 36 5
a 36 35 19
a 35 43 3
a 43 35 2
a 36 37 5
a 37 36 5
a 36 44 18
a 44 36 12
a 37 38 2
a 38 37 12
a 37 45 20
a 45 37 13
a 38 39 5
a 39 38 4
a 38 46 7
a 46 38 7
a 39 40 6
a 40 39 1
a 39 47 5
a 47 39 7
a 40 48 4
a 48 40 10
a 41 42 19
a 42 41 13
a 41 49 9
a 49 41 11
a 42 43 17
a 43 42 5
a 42 50 1
a 50 42 6
a 43 44 7
a 44 43 14
a 43 51 4
a 51 43 5
a 44 45 1
a 45 44 3
a 44 52 1
a 52 44 19
a 45 46 8
a 46 45 1
a 45 53 1
a 53 45 1
a 46 47 1
a 47 46 14
a 46 54 6
a 54 46 7
a 47 48 18
a 48 47 2
a 47 55 6
a 55 47 21
a 48 56 18
a 56 48 20
a 49 50 10
a 50 49 9
a 49 57 5
a 57 49 13
a 50 51 20
a 51 50 11
a 50 58 1
a 58 50 20
a 51 52 7
a 52 51 1
a 51 59 3
a 59 51 21
a 52 53 11
a 53 52 1
a 52 60 11
a 60 52 15
a 53 54 13
a 54 53 11
a 53 61 9
a 61 53 17
a 54 55 4
a 55 54 7
a 54 62 2
a 62 54 16
a 55 56 10
a 56 55 1
a 55 63 12
a 63 55 1
a 56 64 11
a 64 56 16
a 57 58 8
a 58 57 4
a 58 59 9
a 59 58 5
a 59 60 16
a 60 59 5
a 60 61 1
a 61 60 1
a 61 62 16
a 62 61 13
a 62 63 14
a 63 62 22
a 63 64 3
a 64 63 3
