p sp 49 168
a 1 2 2
a 2 1 17
a 1 8 19
a 8 1 20
a 2 3 1
a 3 2 19
a 2 9 17
a 9 2 1
a 3 4 15
a 4 3 16
a 3 10 1
a 10 3 21
a 4 5 18
a 5 4 16
a 4 11 1
a 11 4 13
a 5 6 1
a 6 5 17
a 5 12 9
a 12 5 1
a 6 7 1
a 7 6 8
a 6 13 1
a 13 6 16
a 7 14 1
a 14 7 1
a 8 9 19
a 9 8 10
a 8 15 18
a 15 8 1
a 9 10 1
a 10 9 7
a 9 16 3
a 16 9 18
a 10 11 9
a 11 10 12
a 10 17 18
a 17 10 18
a 11 12 13
a 12 11 14
a 11 18 14
a 18 11 3
a 12 13 1
a 13 12 20
a 12 19 1
a 19 12 4
a 13 14 14
a 14 13 15
a 13 20 17
a 20 13 6
a 14 21 1
a 21 14 1
a 15 16 6
a 16 15 11
a 15 22 3
a 22 15 1
a 16 17 16
a 17 16 15
a 16 23 2
a 23 16 19
a 17 18 1
a 18 17 13
a 17 24 5
a 24 17 15
a 18 19 3
a 19 18 4
a 18 25 1
a 25 18 1
a 19 20 2
a 20 19 18
a 19 26 10
a 26 19 7
a 20 21 1
a 21 20 6
a 20 27 2
a 27 20 12
a 21 28 2
a 28 21 7
a 22 23 1
a 23 22 6
a 22 29 13
a 29 22 6
a 23 24 19
a 24 23 1
a 23 30 16
a 30 23 1
a 24 25 15
a 25 24 19
a 24 31 20
a 31 24 15
a 25 26 3
a 26 25 11
a 25 32 1
a 32 25 17
a 26 27 18
a 27 26 15
a 26 33 16
a 33 26 18
a 27 28 12
a 28 27 3
a 27 34 1
a 34 27 16
a 28 35 16
a 35 28 9
a 29 30 17
a 30 29 14
a 29 36 1
a 36 29 15
a 30 31 1
a 31 30 14
a 30 37 15
a 37 30 7
a 31 32 1
a 32 31 17
a 31 38 5
a 38 31 11
a 32 33 8
a 33 32 1
a 32 39 1
a 39 32 10
a 33 34 1
a 34 33 10
a 33 40 9
a 40 33 3
a 34 35 4
a 35 34 13
a 34 41 1
a 41 34 15
a 35 42 14
a 42 35 17
a 36 37 1
a 37 36 2
a 36 43 8
a 43 36 19
a 37 38 1
a 38 37 1
a 37 44 4
a 44 37 1
a 38 39 9
a 39 38 1
a 38 45 3
a 45 38 17
a 39 40 5
a 40 39 16
a 39 46 1
a 46 39 3
a 40 41 18
a 41 40 16
a 40 47 1
a 47 40 7
a 41 42 6
a 42 41 1
a 41 48 1
a 48 41 3
a 42 49 7
a 49 42 5
a 43 44 12
a 44 43 13
a 44 45 5
a 45 44 2
a 45 46 21
a 46 45 16
a 46 47 14
a 47 46 4
a 47 48 1
a 48 47 1
a 48 49 17
a 49 48 16
