p sp 49 168
a 1 2 15
a 2 1 9
a 1 8 11
a 8 1 11
a 2 3 1
a 3 2 16
a 2 9 16
a 9 2 10
a 3 4 11
a 4 3 8
a 3 10 13
a 10 3 2
a 4 5 17
a 5 4 4
a 4 11 1
a 11 4 9
a 5 6 18
a 6 5 11
a 5 12 17
a 12 5 3
a 6 7 1
a 7 6 12
a 6 13 3
a 13 6 1
a 7 14 4
a 14 7 8
a 8 9 9
a 9 8 8
a 8 15 6
a 15 8 19
a 9 10 16
a 10 9 18
a 9 16 21
a 16 9 1
a 10 11 10
a 11 10 1
a 10 17 12
a 17 10 22
a 11 12 10
a 12 11 7
a 11 18 16
a 18 11 1
a 12 13 14
a 13 12 1
a 12 19 10
a 19 12 13
a 13 14 2
a 14 13 3
a 13 20 1
a 20 13 3
a 14 21 1
a 21 14 14
a 15 16 5
a 16 15 20
a 15 22 7
a 22 15 11
a 16 17 12
a 17 16 1
a 16 23 16
a 23 16 13
a 17 18 16
a 18 17 5
a 17 24 1
a 24 17 14
a 18 19 16
a 19 18 6
a 18 25 9
a 25 18 18
a 19 20 18
a 20 19 11
a 19 26 12
a 26 19 1
a 20 21 20
a 21 20 12
a 20 27 10
a 27 20 4
a 21 28 1
a 28 21 13
a 22 23 17
a 23 22 1
a 22 29 12
a 29 22 8
a 23 24 9
a 24 23 1
a 23 30 3
a 30 23 1
a 24 25 1
a 25 24 7
a 24 31 14
a 31 24 1
a 25 26 17
a 26 25 8
a 25 32 6
a 32 25 13
a 26 27 19
a 27 26 18
a 26 33 1
a 33 26 19
a 27 28 1
a 28 27 1
a 27 34 15
a 34 27 10
a 28 35 4
a 35 28 1
a 29 30 5
a 30 29 1
a 29 36 12
a 36 29 2
a 30 31 13
a 31 30 17
a 30 37 5
a 37 30 10
a 31 32 1
a 32 31 19
a 31 38 12
a 38 31 1
a 32 33 1
a 33 32 14
a 32 39 3
a 39 32 10
a 33 34 15
a 34 33 11
a 33 40 4
a 40 33 8
a 34 35 5
a 35 34 6
a 34 41 20
a 41 34 1
a 35 42 20
a 42 35 6
a 36 37 10
a 37 36 2
a 36 43 21
a 43 36 20
a 37 38 2
a 38 37 2
a 37 44 15
a 44 37 19
a 38 39 5
a 39 38 20
a 38 45 18
a 45 38 2
a 39 40 14
a 40 39 13
a 39 46 5
a 46 39 21
a 40 41 10
a 41 40 1
a 40 47 4
a 47 40 1
a 41 42 10
a 42 41 1
a 41 48 3
a 48 41 19
a 42 49 18
a 49 42 15
a 43 44 15
a 44 43 1
a 44 45 17
a 45 44 6
a 45 46 15
a 46 45 10
a 46 47 17
a 47 46 16
a 47 48 19
a 48 47 1
a 48 49 14
a 49 48 20
