p sp 49 168
a 1 2 3
a 2 1 1
a 1 8 5
a 8 1 1
a 2 3 1
a 3 2 16
a 2 9 20
a 9 2 11
a 3 4 15
a 4 3 10
a 3 10 17
a 10 3 1
a 4 5 9
a 5 4 18
a 4 11 14
a 11 4 15
a 5 6 1
a 6 5 17
a 5 12 20
a 12 5 1
a 6 7 11
a 7 6 2
a 6 13 12
a 13 6 16
a 7 14 10
a 14 7 1
a 8 9 7
a 9 8 1
a 8 15 6
a 15 8 1
a 9 10 14
a 10 9 9
a 9 16 21
a 16 9 10
a 10 11 14
a 11 10 12
a 10 17 1
a 17 10 1
a 11 12 16
a 12 11 19
a 11 18 7
a 18 11 17
a 12 13 1
a 13 12 16
a 12 19 6
a 19 12 13
a 13 14 1
a 14 13 14
a 13 20 15
a 20 13 1
a 14 21 12
a 21 14 3
a 15 16 12
a 16 15 1
a 15 22 7
a 22 15 15
a 16 17 17
a 17 16 2
a 16 23 19
a 23 16 13
a 17 18 18
a 18 17 4
a 17 24 1
a 24 17 13
a 18 19 4
a 19 18 13
a 18 25 13
a 25 18 1
a 19 20 20
a 20 19 3
a 19 26 1
a 26 19 2
a 20 21 4
a 21 20 17
a 20 27 6
a 27 20 3
a 21 28 1
a 28 21 20
a 22 23 8
a 23 22 1
a 22 29 4
a 29 22 15
a 23 24 5
a 24 23 12
a 23 30 6
a 30 23 7
a 24 25 1
a 25 24 15
a 24 31 11
a 31 24 9
a 25 26 1
a 26 25 11
a 25 32 4
a 32 25 8
a 26 27 1
a 27 26 1
a 26 33 9
a 33 26 9
a 27 28 2
a 28 27 1
a 27 34 14
a 34 27 21
a 28 35 1
a 35 28 1
a 29 30 3
a 30 29 9
a 29 36 11
a 36 29 16
a 30 31 11
a 31 30 4
a 30 37 14
a 37 30 8
a 31 32 2
a 32 31 14
a 31 38 11
a 38 31 16
a 32 33 12
a 33 32 14
a 32 39 18
a 39 32 9
a 33 34 18
a 34 33 4
a 33 40 1
a 40 33 14
a 34 35 16
a 35 34 7
a 34 41 11
a 41 34 1
a 35 42 20
a 42 35 1
a 36 37 2
a 37 36 13
a 36 43 21
a 43 36 8
a 37 38 8
a 38 37 1
a 37 44 4
a 44 37 1
a 38 39 3
a 39 38 8
a 38 45 4
a 45 38 5
a 39 40 1
a 40 39 19
a 39 46 16
a 46 39 5
a 40 41 1
a 41 40 17
a 40 47 11
a 47 40 15
a 41 42 7
a 42 41 9
a 41 48 3
a 48 41 14
a 42 49 11
a 49 42 20
a 43 44 11
a 44 43 1
a 44 45 5
a 45 44 17
a 45 46 11
a 46 45 12
a 46 47 20
a 47 46 8
a 47 48 9
a 48 47 17
a 48 49 3
a 49 48 4
