p sp 49 168
a 1 2 1
a 2 1 3
a 1 8 1
a 8 1 9
a 2 3 1
a 3 2 1
a 2 9 17
a 9 2 16
a 3 4 1
a 4 3 10
a 3 10 8
a 10 3 13
a 4 5 16
a 5 4 15
a 4 11 4
a 11 4 1
a 5 6 1
a 6 5 11
a 5 12 11
a 12 5 1
a 6 7 18
a 7 6 18
a 6 13 13
a 13 6 16
a 7 14 17
a 14 7 17
a 8 9 16
a 9 8 17
a 8 15 9
a 15 8 8
a 9 10 14
a 10 9 11
a 9 16 21
a 16 9 13
a 10 11 9
a 11 10 17
a 10 17 8
a 17 10 13
a 11 12 21
a 12 11 19
a 11 18 9
a 18 11 4
a 12 13 8
a 13 12 20
a 12 19 1
a 19 12 1
a 13 14 5
a 14 13 13
a 13 20 21
a 20 13 10
a 14 21 12
a 21 14 3
a 15 16 1
a 16 15 8
a 15 22 9
a 22 15 7
a 16 17 4
a 17 16 15
a 16 23 22
a 23 16 6
a 17 18 9
a 18 17 17
a 17 24 2
a 24 17 1
a 18 19 1
a 19 18 9
a 18 25 12
a 25 18 6
a 19 20 18
a 20 19 13
a 19 26 12
a 26 19 19
a 20 21 12
a 21 20 10
a 20 27 1
a 27 20 21
a 21 28 8
a 28 21 7
a 22 23 7
a 23 22 20
a 22 29 13
a 29 22 4
a 23 24 13
a 24 23 7
a 23 30 19
a 30 23 3
a 24 25 1
a 25 24 20
a 24 31 1
a 31 24 1
a 25 26 14
a 26 25 12
a 25 32 20
a 32 25 13
a 26 27 20
a 27 26 12
a 26 33 15
a 33 26 4
a 27 28 16
a 28 27 6
a 27 34 15
a 34 27 14
a 28 35 1
a 35 28 2
a 29 30 15
a 30 29 15
a 29 36 9
a 36 29 16
a 30 31 8
a 31 30 1
a 30 37 1
a 37 30 1
a 31 32 16
a 32 31 17
a 31 38 15
a 38 31 11
a 32 33 5
a 33 32 15
a 32 39 13
a 39 32 20
a 33 34 10
a 34 33 11
a 33 40 18
a 40 33 17
a 34 35 10
a 35 34 1
a 34 41 18
a 41 34 2
a 35 42 5
a 42 35 19
a 36 37 3
a 37 36 2
a 36 43 5
a 43 36 5
a 37 38 18
a 38 37 12
a 37 44 2
a 44 37 12
a 38 39 20
a 39 38 13
a 38 45 5
a 45 38 4
a 39 40 7
a 40 39 7
a 39 46 6
a 46 39 1
a 40 41 5
a 41 40 7
a 40 47 4
a 47 40 10
a 41 42 19
a 42 41 13
a 41 48 9
a 48 41 11
a 42 49 17
a 49 42 5
a 43 44 1
a 44 43 6
a 44 45 7
a 45 44 14
a 45 46 4
a 46 45 5
a 46 47 1
a 47 46 3
a 47 48 1
a 48 47 19
a 48 49 8
a 49 48 1
