p sp 36 120
a 1 2 2
a 2 1 18
a 1 7 18
a 7 1 13
a 2 3 5
a 3 2 16
a 2 8 17
a 8 2 20
a 3 4 3
a 4 3 3
a 3 9 3
a 9 3 2
a 4 5 18
a 5 4 7
a 4 10 4
a 10 4 1
a 5 6 9
a 6 5 6
a 5 11 17
a 11 5 5
a 6 12 14
a 12 6 10
a 7 8 18
a 8 7 19
a 7 13 9
a 13 7 1
a 8 9 3
a 9 8 16
a 8 14 8
a 14 8 11
a 9 10 11
a 10 9 2
a 9 15 12
a 15 9 2
a 10 11 19
a 11 10 12
a 10 16 6
a 16 10 2
a 11 12 2
a 12 11 13
a 11 17 14
a 17 11 9
a 12 18 8
a 18 12 18
a 13 14 4
a 14 13 16
a 13 19 3
a 19 13 2
a 14 15 11
a 15 14 14
a 14 20 3
a 20 14 4
a 15 16 12
a 16 15 4
a 15 21 5
a 21 15 4
a 16 17 2
a 17 16 15
a 16 22 1
a 22 16 18
a 17 18 1
a 18 17 5
a 17 23 12
a 23 17 11
a 18 24 7
a 24 18 6
a 19 20 6
a 20 19 12
a 19 25 20
a 25 19 10
a 20 21 4
a 21 20 14
a 20 26 18
a 26 20 4
a 21 22 10
a 22 21 10
a 21 27 5
a 27 21 7
a 22 23 3
a 23 22 5
a 22 28 11
a 28 22 5
a 23 24 10
a 24 23 19
a 23 29 8
a 29 23 10
a 24 30 12
a 30 24 4
a 25 26 4
a 26 25 20
a 25 31 2
a 31 25 13
a 26 27 1
a 27 26 3
a 26 32 3
a 32 26 12
a 27 28 8
a 28 27 1
a 27 33 12
a 33 27 20
a 28 29 6
a 29 28 3
a 28 34 4
a 34 28 14
a 29 30 13
a 30 29 6
a 29 35 7
a 35 29 12
a 30 36 11
a 36 30 15
a 31 32 10
a 32 31 19
a 32 33 14
a 33 32 6
a 33 34 3
a 34 33 5
a 34 35 8
a 35 34 10
a 35 36 20
a 36 35 7
