p sp 36 120
a 1 2 9
a 2 1 16
a 1 7 8
a 7 1 1
a 2 3 3
a 3 2 1
a 2 8 18
a 8 2 14
a 3 4 17
a 4 3 16
a 3 9 12
a 9 3 10
a 4 5 13
a 5 4 1
a 4 10 22
a 10 4 20
a 5 6 16
a 6 5 14
a 5 11 10
a 11 5 19
a 6 12 1
a 12 6 13
a 7 8 1
a 8 7 8
a 7 13 12
a 13 7 6
a 8 9 11
a 9 8 11
a 8 14 17
a 14 8 19
a 9 10 11
a 10 9 15
a 9 15 1
a 15 9 13
a 10 11 8
a 11 10 6
a 10 16 2
a 16 10 17
a 11 12 16
a 12 11 5
a 11 17 1
a 17 11 17
a 12 18 9
a 18 12 6
a 13 14 1
a 14 13 1
a 13 19 13
a 19 13 8
a 14 15 4
a 15 14 5
a 14 20 17
a 20 14 16
a 15 16 8
a 16 15 20
a 15 21 17
a 21 15 4
a 16 17 4
a 17 16 4
a 16 22 10
a 22 16 1
a 17 18 22
a 18 17 14
a 17 23 16
a 23 17 14
a 18 24 5
a 24 18 13
a 19 20 2
a 20 19 1
a 19 25 5
a 25 19 8
a 20 21 16
a 21 20 4
a 20 26 6
a 26 20 20
a 21 22 8
a 22 21 5
a 21 27 5
a 27 21 12
a 22 23 16
a 23 22 18
a 22 28 3
a 28 22 3
a 23 24 13
a 24 23 19
a 23 29 18
a 29 23 18
a 24 30 1
a 30 24 22
a 25 26 17
a 26 25 11
a 25 31 18
a 31 25 3
a 26 27 17
a 27 26 15
a 26 32 11
a 32 26 9
a 27 28 1
a 28 27 13
a 27 33 4
a 33 27 14
a 28 29 12
a 29 28 12
a 28 34 12
a 34 28 14
a 29 30 11
a 30 29 2
a 29 35 9
a 35 29 6
a 30 36 6
a 36 30 15
a 31 32 1
a 32 31 17
a 32 33 16
a 33 32 18
a 33 34 12
a 34 33 9
a 34 35 21
a 35 34 5
a 35 36 2
a 36 35 1
