p sp 36 120
a 1 2 2
a 2 1 8
a 1 7 4
a 7 1 1
a 2 3 1
a 3 2 7
a 2 8 8
a 8 2 15
a 3 4 9
a 4 3 13
a 3 9 1
a 9 3 17
a 4 5 10
a 5 4 8
a 4 10 1
a 10 4 14
a 5 6 1
a 6 5 1
a 5 11 17
a 11 5 11
a 6 12 1
a 12 6 1
a 7 8 8
a 8 7 1
a 7 13 1
a 13 7 9
a 8 9 19
a 9 8 1
a 8 14 3
a 14 8 1
a 9 10 4
a 10 9 13
a 9 15 8
a 15 9 1
a 10 11 4
a 11 10 14
a 10 16 1
a 16 10 20
a 11 12 18
a 12 11 1
a 11 17 20
a 17 11 4
a 12 18 17
a 18 12 3
a 13 14 20
a 14 13 3
a 13 19 1
a 19 13 15
a 14 15 17
a 15 14 16
a 14 20 1
a 20 14 12
a 15 16 10
a 16 15 11
a 15 21 3
a 21 15 7
a 16 17 3
a 17 16 5
a 16 22 11
a 22 16 1
a 17 18 20
a 18 17 1
a 17 23 1
a 23 17 1
a 18 24 11
a 24 18 1
a 19 20 3
a 20 19 7
a 19 25 15
a 25 19 14
a 20 21 13
a 21 20 5
a 20 26 12
a 26 20 13
a 21 22 20
a 22 21 13
a 21 27 1
a 27 21 20
a 22 23 1
a 23 22 2
a 22 28 12
a 28 22 20
a 23 24 4
a 24 23 1
a 23 29 16
a 29 23 19
a 24 30 19
a 30 24 1
a 25 26 18
a 26 25 5
a 25 31 4
a 31 25 17
a 26 27 4
a 27 26 17
a 26 32 16
a 32 26 6
a 27 28 4
a 28 27 4
a 27 33 1
a 33 27 15
a 28 29 7
a 29 28 18
a 28 34 5
a 34 28 1
a 29 30 9
a 30 29 1
a 29 35 10
a 35 29 18
a 30 36 15
a 36 30 9
a 31 32 12
a 32 31 19
a 32 33 14
a 33 32 7
a 33 34 16
a 34 33 14
a 34 35 5
a 35 34 20
a 35 36 8
a 36 35 4
