p sp 36 120
a 1 2 15
a 2 1 8
a 1 7 2
a 7 1 9
a 2 3 9
a 3 2 8
a 2 8 1
a 8 2 11
a 3 4 5
a 4 3 20
a 3 9 12
a 9 3 8
a 4 5 13
a 5 4 11
a 4 10 18
a 10 4 2
a 5 6 18
a 6 5 3
a 5 11 7
a 11 5 18
a 6 12 14
a 12 6 4
a 7 8 15
a 8 7 5
a 7 13 17
a 13 7 21
a 8 9 19
a 9 8 6
a 8 14 21
a 14 8 1
a 9 10 14
a 10 9 18
a 9 15 1
a 15 9 21
a 10 11 13
a 11 10 16
a 10 16 14
a 16 10 4
a 11 12 22
a 12 11 7
a 11 17 1
a 17 11 17
a 12 18 1
a 18 12 15
a 13 14 14
a 14 13 3
a 13 19 1
a 19 13 10
a 14 15 1
a 15 14 12
a 14 20 10
a 20 14 19
a 15 16 4
a 16 15 1
a 15 21 1
a 21 15 16
a 16 17 16
a 17 16 5
a 16 22 14
a 22 16 4
a 17 18 9
a 18 17 21
a 17 23 8
a 23 17 20
a 18 24 14
a 24 18 8
a 19 20 21
a 20 19 10
a 19 25 16
a 25 19 6
a 20 21 12
a 21 20 1
a 20 26 2
a 26 20 8
a 21 22 18
a 22 21 5
a 21 27 19
a 27 21 14
a 22 23 19
a 23 22 1
a 22 28 13
a 28 22 9
a 23 24 18
a 24 23 15
a 23 29 1
a 29 23 19
a 24 30 1
a 30 24 7
a 25 26 7
a 26 25 8
a 25 31 12
a 31 25 5
a 26 27 9
a 27 26 13
a 26 32 16
a 32 26 18
a 27 28 3
a 28 27 9
a 27 33 1
a 33 27 11
a 28 29 10
a 29 28 13
a 28 34 6
a 34 28 12
a 29 30 10
a 30 29 15
a 29 35 9
a 35 29 1
a 30 36 18
a 36 30 15
a 31 32 14
a 32 31 15
a 32 33 20
a 33 32 14
a 33 34 4
a 34 33 3
a 34 35 9
a 35 34 14
a 35 36 1
a 36 35 15
