p sp 36 120
a 1 2 9
a 2 1 1
a 1 7 1
a 7 1 14
a 2 3 14
a 3 2 16
a 2 8 10
a 8 2 9
a 3 4 11
a 4 3 11
a 3 9 7
a 9 3 20
a 4 5 1
a 5 4 8
a 4 10 12
a 10 4 20
a 5 6 10
a 6 5 12
a 5 11 1
a 11 5 2
a 6 12 1
a 12 6 17
a 7 8 1
a 8 7 15
a 7 13 1
a 13 7 8
a 8 9 4
a 9 8 18
a 8 14 1
a 14 8 11
a 9 10 9
a 10 9 9
a 9 15 7
a 15 9 13
a 10 11 5
a 11 10 19
a 10 16 16
a 16 10 11
a 11 12 10
a 12 11 8
a 11 17 15
a 17 11 5
a 12 18 1
a 18 12 1
a 13 14 14
a 14 13 5
a 13 19 15
a 19 13 5
a 14 15 11
a 15 14 11
a 14 20 4
a 20 14 22
a 15 16 11
a 16 15 6
a 15 21 5
a 21 15 14
a 16 17 2
a 17 16 12
a 16 22 13
a 22 16 7
a 17 18 15
a 18 17 9
a 17 23 1
a 23 17 18
a 18 24 16
a 24 18 1
a 19 20 2
a 20 19 2
a 19 25 1
a 25 19 1
a 20 21 5
a 21 20 12
a 20 26 10
a 26 20 20
a 21 22 10
a 22 21 16
a 21 27 7
a 27 21 19
a 22 23 10
a 23 22 14
a 22 28 1
a 28 22 12
a 23 24 17
a 24 23 19
a 23 29 11
a 29 23 10
a 24 30 15
a 30 24 20
a 25 26 18
a 26 25 14
a 25 31 1
a 31 25 16
a 26 27 13
a 27 26 11
a 26 32 1
a 32 26 18
a 27 28 15
a 28 27 13
a 27 33 18
a 33 27 10
a 28 29 14
a 29 28 2
a 28 34 1
a 34 28 1
a 29 30 10
a 30 29 13
a 29 35 3
a 35 29 20
a 30 36 6
a 36 30 13
a 31 32 1
a 32 31 1
a 32 33 6
a 33 32 1
a 33 34 5
a 34 33 5
a 34 35 5
a 35 34 1
a 35 36 1
a 36 35 14
