p sp 36 120
a 1 2 3
a 2 1 2
a 1 7 12
a 7 1 1
a 2 3 20
a 3 2 14
a 2 8 15
a 8 2 15
a 3 4 11
a 4 3 1
a 3 9 13
a 9 3 17
a 4 5 1
a 5 4 14
a 4 10 1
a 10 4 14
a 5 6 13
a 6 5 7
a 5 11 7
a 11 5 5
a 6 12 10
a 12 6 10
a 7 8 16
a 8 7 4
a 7 13 5
a 13 7 2
a 8 9 19
a 9 8 14
a 8 14 21
a 14 8 14
a 9 10 4
a 10 9 5
a 9 15 16
a 15 9 10
a 10 11 13
a 11 10 7
a 10 16 3
a 16 10 12
a 11 12 21
a 12 11 3
a 11 17 3
a 17 11 8
a 12 18 15
a 18 12 10
a 13 14 18
a 14 13 1
a 13 19 11
a 19 13 10
a 14 15 2
a 15 14 17
a 14 20 17
a 20 14 1
a 15 16 1
a 16 15 13
a 15 21 1
a 21 15 6
a 16 17 4
a 17 16 9
a 16 22 8
a 22 16 4
a 17 18 20
a 18 17 12
a 17 23 11
a 23 17 4
a 18 24 9
a 24 18 4
a 19 20 8
a 20 19 7
a 19 25 16
a 25 19 1
a 20 21 4
a 21 20 1
a 20 26 7
a 26 20 1
a 21 22 1
a 22 21 1
a 21 27 1
a 27 21 11
a 22 23 1
a 23 22 17
a 22 28 1
a 28 22 18
a 23 24 18
a 24 23 19
a 23 29 9
a 29 23 5
a 24 30 10
a 30 24 13
a 25 26 17
a 26 25 2
a 25 31 4
a 31 25 3
a 26 27 19
a 27 26 1
a 26 32 2
a 32 26 15
a 27 28 5
a 28 27 20
a 27 33 2
a 33 27 14
a 28 29 16
a 29 28 6
a 28 34 1
a 34 28 1
a 29 30 1
a 30 29 18
a 29 35 10
a 35 29 15
a 30 36 8
a 36 30 13
a 31 32 20
a 32 31 4
a 32 33 20
a 33 32 20
a 33 34 12
a 34 33 15
a 34 35 19
a 35 34 4
a 35 36 4
a 36 35 4
