p sp 36 120
a 1 2 1
a 2 1 1
a 1 7 1
a 7 1 1
a 2 3 17
a 3 2 3
a 2 8 12
a 8 2 1
a 3 4 19
a 4 3 6
a 3 9 19
a 9 3 5
a 4 5 1
a 5 4 14
a 4 10 1
a 10 4 1
a 5 6 11
a 6 5 1
a 5 11 10
a 11 5 20
a 6 12 14
a 12 6 17
a 7 8 9
a 8 7 3
a 7 13 17
a 13 7 22
a 8 9 4
a 9 8 8
a 8 14 21
a 14 8 11
a 9 10 3
a 10 9 20
a 9 15 20
a 15 9 3
a 10 11 17
a 11 10 9
a 10 16 16
a 16 10 8
a 11 12 1
a 12 11 13
a 11 17 4
a 17 11 16
a 12 18 21
a 18 12 12
a 13 14 12
a 14 13 5
a 13 19 19
a 19 13 3
a 14 15 14
a 15 14 4
a 14 20 2
a 20 14 16
a 15 16 1
a 16 15 5
a 15 21 11
a 21 15 13
a 16 17 1
a 17 16 1
a 16 22 1
a 22 16 1
a 17 18 13
a 18 17 11
a 17 23 3
a 23 17 12
a 18 24 19
a 24 18 5
a 19 20 2
a 20 19 13
a 19 25 1
a 25 19 1
a 20 21 13
a 21 20 1
a 20 26 1
a 26 20 19
a 21 22 2
a 22 21 13
a 21 27 15
a 27 21 1
a 22 23 6
a 23 22 21
a 22 28 1
a 28 22 14
a 23 24 1
a 24 23 1
a 23 29 15
a 29 23 4
a 24 30 13
a 30 24 4
a 25 26 11
a 26 25 4
a 25 31 4
a 31 25 15
a 26 27 16
a 27 26 15
a 26 32 1
a 32 26 19
a 27 28 16
a 28 27 10
a 27 33 16
a 33 27 1
a 28 29 2
a 29 28 9
a 28 34 14
a 34 28 7
a 29 30 9
a 30 29 10
a 29 35 21
a 35 29 2
a 30 36 3
a 36 30 6
a 31 32 10
a 32 31 1
a 32 33 5
a 33 32 13
a 33 34 20
a 34 33 8
a 34 35 21
a 35 34 4
a 35 36 1
a 36 35 2
