p sp 36 120
a 1 2 13
a 2 1 8
a 1 7 19
a 7 1 1
a 2 3 8
a 3 2 19
a 2 8 17
a 8 2 2
a 3 4 13
a 4 3 20
a 3 9 18
a 9 3 4
a 4 5 13
a 5 4 1
a 4 10 14
a 10 4 11
a 5 6 1
a 6 5 1
a 5 11 9
a 11 5 13
a 6 12 14
a 12 6 17
a 7 8 4
a 8 7 8
a 7 13 5
a 13 7 11
a 8 9 17
a 9 8 11
a 8 14 16
a 14 8 13
a 9 10 12
a 10 9 13
a 9 15 9
a 15 9 16
a 10 11 17
a 11 10 1
a 10 16 19
a 16 10 22
a 11 12 11
a 12 11 10
a 11 17 1
a 17 11 15
a 12 18 18
a 18 12 13
a 13 14 4
a 14 13 3
a 13 19 1
a 19 13 10
a 14 15 6
a 15 14 11
a 14 20 4
a 20 14 18
a 15 16 16
a 16 15 14
a 15 21 1
a 21 15 1
a 16 17 12
a 17 16 1
a 16 22 1
a 22 16 16
a 17 18 13
a 18 17 1
a 17 23 20
a 23 17 1
a 18 24 19
a 24 18 12
a 19 20 1
a 20 19 1
a 19 25 8
a 25 19 20
a 20 21 1
a 21 20 3
a 20 26 1
a 26 20 6
a 21 22 8
a 22 21 1
a 21 27 20
a 27 21 5
a 22 23 1
a 23 22 13
a 22 28 4
a 28 22 8
a 23 24 1
a 24 23 13
a 23 29 11
a 29 23 1
a 24 30 3
a 30 24 18
a 25 26 11
a 26 25 1
a 25 31 5
a 31 25 16
a 26 27 8
a 27 26 15
a 26 32 12
a 32 26 9
a 27 28 14
a 28 27 2
a 27 33 1
a 33 27 3
a 28 29 13
a 29 28 1
a 28 34 16
a 34 28 16
a 29 30 20
a 30 29 1
a 29 35 16
a 35 29 4
a 30 36 4
a 36 30 12
a 31 32 12
a 32 31 2
a 32 33 7
a 33 32 19
a 33 34 4
a 34 33 21
a 34 35 1
a 35 34 10
a 35 36 9
a 36 35 19
