p sp 100 360
a 1 2 2
a 2 1 2
a 1 11 2
a 11 1 8
a 2 3 13
a 3 2 2
a 2 12 14
a 12 2 10
a 3 4 17
a 4 3 14
a 3 13 12
a 13 3 9
a 4 5 3
a 5 4 7
a 4 14 8
a 14 4 16
a 5 6 18
a 6 5 5
a 5 15 9
a 15 5 3
a 6 7 1
a 7 6 1
a 6 16 11
a 16 6 3
a 7 8 17
a 8 7 13
a 7 17 4
a 17 7 5
a 8 9 10
a 9 8 17
a 8 18 4
a 18 8 3
a 9 10 9
a 10 9 17
a 9 19 8
a 19 9 18
a 10 20 16
a 20 10 11
a 11 12 1
a 12 11 4
a 11 21 11
a 21 11 6
a 12 13 9
a 13 12 10
a 12 22 2
a 22 12 4
a 13 14 9
a 14 13 15
a 13 23 6
a 23 13 16
a 14 15 11
a 15 14 17
a 14 24 13
a 24 14 14
a 15 16 16
a 16 15 6
a 15 25 8
a 25 15 20
a 16 17 3
a 17 16 19
a 16 26 16
a 26 16 8
a 17 18 14
a 18 17 14
a 17 27 11
a 27 17 15
a 18 19 13
a 19 18 2
a 18 28 4
a 28 18 15
a 19 20 13
a 20 19 11
a 19 29 5
a 29 19 11
a 20 30 14
a 30 20 4
a 21 22 15
a 22 21 5
a 21 31 12
a 31 21 4
a 22 23 1
a 23 22 12
a 22 32 10
a 32 22 1
a 23 24 11
a 24 23 13
a 23 33 16
a 33 23 1
a 24 25 6
a 25 24 4
a 24 34 5
a 34 24 17
a 25 26 10
a 26 25 4
a 25 35 6
a 35 25 8
a 26 27 18
a 27 26 3
a 26 36 19
a 36 26 20
a 27 28 10
a 28 27 14
a 27 37 8
a 37 27 19
a 28 29 3
a 29 28 7
a 28 38 14
a 38 28 13
a 29 30 5
a 30 29 14
a 29 39 17
a 39 29 5
a 30 40 8
a 40 30 15
a 31 32 11
a 32 31 19
a 31 41 4
a 41 31 5
a 32 33 17
a 33 32 9
a 32 42 2
a 42 32 5
a 33 34 17
a 34 33 5
a 33 43 3
a 43 33 14
a 34 35 1
a 35 34 8
a 34 44 8
a 44 34 16
a 35 36 12
a 36 35 2
a 35 45 20
a 45 35 3
a 36 37 14
a 37 36 17
a 36 46 4
a 46 36 14
a 37 38 2
a 38 37 11
a 37 47 6
a 47 37 11
a 38 39 5
a 39 38 18
a 38 48 11
a 48 38 6
a 39 40 15
a 40 39 13
a 39 49 19
a 49 39 2
a 40 50 9
a 50 40 8
a 41 42 3
a 42 41 19
a 41 51 6
a 51 41 7
a 42 43 10
a 43 42 6
a 42 52 4
a 52 42 6
a 43 44 17
a 44 43 5
a 43 53 19
a 53 43 10
a 44 45 5
a 45 44 5
a 44 54 8
a 54 44 1
a 45 46 20
a 46 45 10
a 45 55 7
a 55 45 16
a 46 47 3
a 47 46 1
a 46 56 15
a 56 46 12
a 47 48 19
a 48 47 12
a 47 57 8
a 57 47 18
a 48 49 9
a 49 48 1
a 48 58 5
a 58 48 1
a 49 50 1
a 50 49 6
a 49 59 9
a 59 49 19
a 50 60 8
a 60 50 14
a 51 52 2
a 52 51 8
a 51 61 20
a 61 51 3
a 52 53 18
a 53 52 7
a 52 62 17
a 62 52 5
a 53 54 5
a 54 53 20
a 53 63 19
a 63 53 6
a 54 55 19
a 55 54 16
a 54 64 19
a 64 54 3
a 55 56 13
a 56 55 7
a 55 65 8
a 65 55 13
a 56 57 8
a 57 56 11
a 56 66 18
a 66 56 6
a 57 58 19
a 58 57 4
a 57 67 13
a 67 57 7
a 58 59 1
a 59 58 11
a 58 68 19
a 68 58 15
a 59 60 19
a 60 59 8
a 59 69 10
a 69 59 12
a 60 70 1
a 70 60 13
a 61 62 7
a 62 61 2
a 61 71 17
a 71 61 5
a 62 63 10
a 63 62 9
a 62 72 11
a 72 62 18
a 63 64 11
a 64 63 8
a 63 73 8
a 73 63 11
a 64 65 18
a 65 64 5
a 64 74 9
a 74 64 19
a 65 66 10
a 66 65 13
a 65 75 10
a 75 65 7
a 66 67 11
a 67 66 8
a 66 76 17
a 76 66 6
a 67 68 15
a 68 67 5
a 67 77 6
a 77 67 6
a 68 69 2
a 69 68 17
a 68 78 1
a 78 68 11
a 69 70 6
a 70 69 13
a 69 79 15
a 79 69 16
a 70 80 7
a 80 70 16
a 71 72 19
a 72 71 7
a 71 81 7
a 81 71 19
a 72 73 14
a 73 72 19
a 72 82 13
a 82 72 12
a 73 74 20
a 74 73 9
a 73 83 17
a 83 73 10
a 74 75 12
a 75 74 2
a 74 84 2
a 84 74 14
a 75 76 7
a 76 75 6
a 75 85 11
a 85 75 5
a 76 77 12
a 77 76 11
a 76 86 16
a 86 76 11
a 77 78 16
a 78 77 13
a 77 87 3
a 87 77 16
a 78 79 12
a 79 78 15
a 78 88 17
a 88 78 6
a 79 80 8
a 80 79 2
a 79 89 9
a 89 79 18
a 80 90 17
a 90 80 3
a 81 82 17
a 82 81 15
a 81 91 5
a 91 81 14
a 82 83 12
a 83 82 3
a 82 92 11
a 92 82 1
a 83 84 17
a 84 83 8
a 83 93 9
a 93 83 18
a 84 85 6
a 85 84 2
a 84 94 11
a 94 84 19
a 85 86 20
a 86 85 18
a 85 95 9
a 95 85 20
a 86 87 20
a 87 86 2
a 86 96 18
a 96 86 14
a 87 88 1
a 88 87 14
a 87 97 5
a 97 87 14
a 88 89 17
a 89 88 2
a 88 98 5
a 98 88 15
a 89 90 2
a 90 89 4
a 89 99 16
a 99 89 8
a 90 100 11
a 100 90 9
a 91 92 16
a 92 91 11
a 92 93 12
a 93 92 15
a 93 94 14
a 94 93 18
a 94 95 17
a 95 94 13
a 95 96 1
a 96 95 9
a 96 97 9
a 97 96 1
a 97 98 5
a 98 97 3
a 98 99 19
a 99 98 1
a 99 100 4
a 100 99 8
