p sp 100 360
a 1 2 8
a 2 1 12
a 1 11 5
a 11 1 5
a 2 3 2
a 3 2 2
a 2 12 18
a 12 2 10
a 3 4 18
a 4 3 17
a 3 13 16
a 13 3 5
a 4 5 14
a 5 4 18
a 4 14 12
a 14 4 7
a 5 6 14
a 6 5 14
a 5 15 13
a 15 5 16
a 6 7 17
a 7 6 10
a 6 16 13
a 16 6 4
a 7 8 12
a 8 7 11
a 7 17 5
a 17 7 14
a 8 9 13
a 9 8 16
a 8 18 17
a 18 8 8
a 9 10 12
a 10 9 6
a 9 19 2
a 19 9 17
a 10 20 12
a 20 10 12
a 11 12 19
a 12 11 1
a 11 21 11
a 21 11 12
a 12 13 5
a 13 12 3
a 12 22 12
a 22 12 14
a 13 14 14
a 14 13 16
a 13 23 3
a 23 13 17
a 14 15 11
a 15 14 19
a 14 24 7
a 24 14 11
a 15 16 5
a 16 15 16
a 15 25 9
a 25 15 17
a 16 17 12
a 17 16 13
a 16 26 4
a 26 16 6
a 17 18 10
a 18 17 9
a 17 27 6
a 27 17 7
a 18 19 17
a 19 18 9
a 18 28 14
a 28 18 16
a 19 20 1
a 20 19 2
a 19 29 15
a 29 19 1
a 20 30 6
a 30 20 14
a 21 22 6
a 22 21 2
a 21 31 7
a 31 21 7
a 22 23 19
a 23 22 11
a 22 32 11
a 32 22 9
a 23 24 14
a 24 23 2
a 23 33 9
a 33 23 8
a 24 25 3
a 25 24 2
a 24 34 8
a 34 24 17
a 25 26 9
a 26 25 19
a 25 35 4
a 35 25 1
a 26 27 8
a 27 26 1
a 26 36 1
a 36 26 17
a 27 28 6
a 28 27 2
a 27 37 2
a 37 27 13
a 28 29 14
a 29 28 1
a 28 38 15
a 38 28 13
a 29 30 4
a 30 29 8
a 29 39 17
a 39 29 16
a 30 40 17
a 40 30 11
a 31 32 6
a 32 31 3
a 31 41 19
a 41 31 16
a 32 33 15
a 33 32 10
a 32 42 16
a 42 32 5
a 33 34 5
a 34 33 8
a 33 43 13
a 43 33 13
a 34 35 3
a 35 34 17
a 34 44 1
a 44 34 13
a 35 36 17
a 36 35 3
a 35 45 15
a 45 35 6
a 36 37 15
a 37 36 12
a 36 46 11
a 46 36 14
a 37 38 3
a 38 37 11
a 37 47 3
a 47 37 1
a 38 39 10
a 39 38 1
a 38 48 7
a 48 38 6
a 39 40 14
a 40 39 14
a 39 49 18
a 49 39 5
a 40 50 19
a 50 40 13
a 41 42 11
a 42 41 4
a 41 51 14
a 51 41 9
a 42 43 6
a 43 42 10
a 42 52 7
a 52 42 14
a 43 44 1
a 44 43 7
a 43 53 11
a 53 43 13
a 44 45 6
a 45 44 18
a 44 54 15
a 54 44 15
a 45 46 13
a 46 45 8
a 45 55 1
a 55 45 2
a 46 47 13
a 47 46 4
a 46 56 9
a 56 46 3
a 47 48 16
a 48 47 14
a 47 57 5
a 57 47 7
a 48 49 18
a 49 48 7
a 48 58 19
a 58 48 14
a 49 50 8
a 50 49 5
a 49 59 12
a 59 49 13
a 50 60 14
a 60 50 8
a 51 52 1
a 52 51 3
a 51 61 11
a 61 51 2
a 52 53 15
a 53 52 16
a 52 62 6
a 62 52 17
a 53 54 2
a 54 53 14
a 53 63 1
a 63 53 6
a 54 55 9
a 55 54 18
a 54 64 11
a 64 54 4
a 55 56 15
a 56 55 7
a 55 65 13
a 65 55 6
a 56 57 5
a 57 56 6
a 56 66 9
a 66 56 10
a 57 58 1
a 58 57 1
a 57 67 2
a 67 57 8
a 58 59 1
a 59 58 17
a 58 68 19
a 68 58 2
a 59 60 17
a 60 59 7
a 59 69 3
a 69 59 11
a 60 70 2
a 70 60 7
a 61 62 17
a 62 61 3
a 61 71 16
a 71 61 4
a 62 63 8
a 63 62 16
a 62 72 3
a 72 62 19
a 63 64 15
a 64 63 14
a 63 73 14
a 73 63 17
a 64 65 1
a 65 64 15
a 64 74 4
a 74 64 9
a 65 66 2
a 66 65 11
a 65 75 14
a 75 65 6
a 66 67 5
a 67 66 13
a 66 76 19
a 76 66 9
a 67 68 7
a 68 67 13
a 67 77 1
a 77 67 17
a 68 69 2
a 69 68 11
a 68 78 19
a 78 68 16
a 69 70 6
a 70 69 4
a 69 79 9
a 79 69 10
a 70 80 9
a 80 70 14
a 71 72 17
a 72 71 6
a 71 81 5
a 81 71 3
a 72 73 2
a 73 72 11
a 72 82 4
a 82 72 6
a 73 74 3
a 74 73 18
a 73 83 15
a 83 73 12
a 74 75 2
a 75 74 17
a 74 84 4
a 84 74 8
a 75 76 18
a 76 75 8
a 75 85 9
a 85 75 11
a 76 77 19
a 77 76 8
a 76 86 9
a 86 76 15
a 77 78 15
a 78 77 17
a 77 87 8
a 87 77 11
a 78 79 2
a 79 78 5
a 78 88 5
a 88 78 3
a 79 80 15
a 80 79 4
a 79 89 19
a 89 79 19
a 80 90 13
a 90 80 5
a 81 82 2
a 82 81 17
a 81 91 13
a 91 81 11
a 82 83 4
a 83 82 14
a 82 92 15
a 92 82 5
a 83 84 9
a 84 83 18
a 83 93 10
a 93 83 10
a 84 85 14
a 85 84 9
a 84 94 5
a 94 84 2
a 85 86 19
a 86 85 2
a 85 95 18
a 95 85 14
a 86 87 2
a 87 86 1
a 86 96 8
a 96 86 19
a 87 88 13
a 88 87 5
a 87 97 5
a 97 87 14
a 88 89 11
a 89 88 11
a 88 98 1
a 98 88 5
a 89 90 1
a 90 89 12
a 89 99 5
a 99 89 2
a 90 100 19
a 100 90 18
a 91 92 19
a 92 91 11
a 92 93 4
a 93 92 1
a 93 94 12
a 94 93 11
a 94 95 10
a 95 94 6
a 95 96 5
a 96 95 2
a 96 97 19
a 97 96 15
a 97 98 13
a 98 97 16
a 98 99 6
a 99 98 1
a 99 100 18
a 100 99 10
