p sp 100 360
a 1 2 13
a 2 1 17
a 1 11 10
a 11 1 13
a 2 3 10
a 3 2 4
a 2 12 8
a 12 2 15
a 3 4 1
a 4 3 15
a 3 13 5
a 13 3 10
a 4 5 18
a 5 4 11
a 4 14 16
a 14 4 15
a 5 6 14
a 6 5 1
a 5 15 1
a 15 5 2
a 6 7 2
a 7 6 15
a 6 16 1
a 16 6 7
a 7 8 9
a 8 7 17
a 7 17 12
a 17 7 11
a 8 9 5
a 9 8 4
a 8 18 7
a 18 8 7
a 9 10 16
a 10 9 6
a 9 19 10
a 19 9 17
a 10 20 8
a 20 10 16
a 11 12 15
a 12 11 14
a 11 21 14
a 21 11 13
a 12 13 12
a 13 12 16
a 12 22 18
a 22 12 10
a 13 14 18
a 14 13 8
a 13 23 13
a 23 13 15
a 14 15 19
a 15 14 18
a 14 24 8
a 24 14 1
a 15 16 1
a 16 15 9
a 15 25 2
a 25 15 8
a 16 17 14
a 17 16 16
a 16 26 6
a 26 16 12
a 17 18 1
a 18 17 9
a 17 27 1
a 27 17 7
a 18 19 12
a 19 18 15
a 18 28 17
a 28 18 9
a 19 20 16
a 20 19 12
a 19 29 1
a 29 19 4
a 20 30 1
a 30 20 4
a 21 22 7
a 22 21 9
a 21 31 1
a 31 21 7
a 22 23 8
a 23 22 13
a 22 32 1
a 32 22 12
a 23 24 19
a 24 23 6
a 23 33 17
a 33 23 5
a 24 25 19
a 25 24 1
a 24 34 2
a 34 24 17
a 25 26 7
a 26 25 14
a 25 35 1
a 35 25 4
a 26 27 5
a 27 26 18
a 26 36 6
a 36 26 1
a 27 28 6
a 28 27 5
a 27 37 18
a 37 27 11
a 28 29 17
a 29 28 16
a 28 38 12
a 38 28 2
a 29 30 9
a 30 29 13
a 29 39 1
a 39 29 19
a 30 40 1
a 40 30 17
a 31 32 1
a 32 31 11
a 31 41 7
a 41 31 15
a 32 33 10
a 33 32 5
a 32 42 11
a 42 32 5
a 33 34 16
a 34 33 16
a 33 43 12
a 43 33 10
a 34 35 11
a 35 34 15
a 34 44 4
a 44 34 11
a 35 36 2
a 36 35 4
a 35 45 13
a 45 35 11
a 36 37 12
a 37 36 6
a 36 46 6
a 46 36 14
a 37 38 16
a 38 37 2
a 37 47 14
a 47 37 9
a 38 39 15
a 39 38 15
a 38 48 17
a 48 38 15
a 39 40 13
a 40 39 19
a 39 49 16
a 49 39 16
a 40 50 9
a 50 40 18
a 41 42 4
a 42 41 9
a 41 51 19
a 51 41 18
a 42 43 14
a 43 42 5
a 42 52 11
a 52 42 5
a 43 44 7
a 44 43 5
a 43 53 1
a 53 43 19
a 44 45 9
a 45 44 5
a 44 54 3
a 54 44 7
a 45 46 8
a 46 45 4
a 45 55 13
a 55 45 14
a 46 47 9
a 47 46 10
a 46 56 15
a 56 46 11
a 47 48 3
a 48 47 12
a 47 57 6
a 57 47 11
a 48 49 12
a 49 48 7
a 48 58 14
a 58 48 14
a 49 50 8
a 50 49 16
a 49 59 15
a 59 49 10
a 50 60 2
a 60 50 17
a 51 52 4
a 52 51 15
a 51 61 6
a 61 51 17
a 52 53 6
a 53 52 6
a 52 62 8
a 62 52 10
a 53 54 7
a 54 53 1
a 53 63 12
a 63 53 13
a 54 55 18
a 55 54 15
a 54 64 14
a 64 54 13
a 55 56 6
a 56 55 19
a 55 65 18
a 65 55 2
a 56 57 1
a 57 56 12
a 56 66 5
a 66 56 11
a 57 58 13
a 58 57 1
a 57 67 3
a 67 57 6
a 58 59 16
a 59 58 5
a 58 68 3
a 68 58 2
a 59 60 17
a 60 59 2
a 59 69 7
a 69 59 7
a 60 70 2
a 70 60 10
a 61 62 15
a 62 61 15
a 61 71 17
a 71 61 5
a 62 63 14
a 63 62 8
a 62 72 14
a 72 62 9
a 63 64 9
a 64 63 2
a 63 73 7
a 73 63 8
a 64 65 3
a 65 64 4
a 64 74 2
a 74 64 4
a 65 66 18
a 66 65 1
a 65 75 6
a 75 65 16
a 66 67 2
a 67 66 5
a 66 76 7
a 76 66 9
a 67 68 1
a 68 67 2
a 67 77 4
a 77 67 17
a 68 69 14
a 69 68 13
a 68 78 6
a 78 68 1
a 69 70 5
a 70 69 19
a 69 79 3
a 79 69 6
a 70 80 13
a 80 70 6
a 71 72 12
a 72 71 7
a 71 81 13
a 81 71 9
a 72 73 10
a 73 72 9
a 72 82 2
a 82 72 1
a 73 74 9
a 74 73 9
a 73 83 1
a 83 73 2
a 74 75 2
a 75 74 19
a 74 84 8
a 84 74 5
a 75 76 13
a 76 75 19
a 75 85 1
a 85 75 11
a 76 77 3
a 77 76 16
a 76 86 17
a 86 76 11
a 77 78 18
a 78 77 17
a 77 87 3
a 87 77 11
a 78 79 3
a 79 78 7
a 78 88 1
a 88 78 10
a 79 80 11
a 80 79 7
a 79 89 17
a 89 79 11
a 80 90 1
a 90 80 12
a 81 82 19
a 82 81 15
a 81 91 7
a 91 81 6
a 82 83 3
a 83 82 8
a 82 92 2
a 92 82 13
a 83 84 11
a 84 83 10
a 83 93 6
a 93 83 13
a 84 85 1
a 85 84 12
a 84 94 4
a 94 84 10
a 85 86 15
a 86 85 8
a 85 95 3
a 95 85 7
a 86 87 13
a 87 86 6
a 86 96 11
a 96 86 8
a 87 88 1
a 88 87 10
a 87 97 10
a 97 87 8
a 88 89 11
a 89 88 5
a 88 98 4
a 98 88 7
a 89 90 16
a 90 89 7
a 89 99 2
a 99 89 12
a 90 100 1
a 100 90 15
a 91 92 10
a 92 91 14
a 92 93 13
a 93 92 14
a 93 94 11
a 94 93 11
a 94 95 10
a 95 94 5
a 95 96 3
a 96 95 10
a 96 97 17
a 97 96 2
a 97 98 1
a 98 97 8
a 98 99 15
a 99 98 19
a 99 100 19
a 100 99 9
