p sp 100 360
a 1 2 8
a 2 1 10
a 1 11 17
a 11 1 2
a 2 3 14
a 3 2 1
a 2 12 15
a 12 2 6
a 3 4 12
a 4 3 16
a 3 13 2
a 13 3 17
a 4 5 10
a 5 4 1
a 4 14 1
a 14 4 5
a 5 6 1
a 6 5 8
a 5 15 3
a 15 5 2
a 6 7 17
a 7 6 1
a 6 16 5
a 16 6 2
a 7 8 4
a 8 7 10
a 7 17 13
a 17 7 14
a 8 9 16
a 9 8 10
a 8 18 18
a 18 8 6
a 9 10 2
a 10 9 8
a 9 19 2
a 19 9 4
a 10 20 18
a 20 10 4
a 11 12 10
a 12 11 11
a 11 21 10
a 21 11 12
a 12 13 11
a 13 12 19
a 12 22 12
a 22 12 7
a 13 14 11
a 14 13 10
a 13 23 15
a 23 13 17
a 14 15 1
a 15 14 1
a 14 24 9
a 24 14 19
a 15 16 8
a 16 15 15
a 15 25 3
a 25 15 6
a 16 17 3
a 17 16 11
a 16 26 7
a 26 16 1
a 17 18 1
a 18 17 3
a 17 27 11
a 27 17 16
a 18 19 2
a 19 18 3
a 18 28 19
a 28 18 11
a 19 20 3
a 20 19 5
a 19 29 5
a 29 19 7
a 20 30 1
a 30 20 1
a 21 22 13
a 22 21 10
a 21 31 17
a 31 21 4
a 22 23 13
a 23 22 1
a 22 32 11
a 32 22 5
a 23 24 17
a 24 23 11
a 23 33 5
a 33 23 6
a 24 25 3
a 25 24 8
a 24 34 19
a 34 24 3
a 25 26 1
a 26 25 12
a 25 35 13
a 35 25 2
a 26 27 12
a 27 26 12
a 26 36 9
a 36 26 4
a 27 28 15
a 28 27 1
a 27 37 6
a 37 27 2
a 28 29 9
a 29 28 3
a 28 38 10
a 38 28 1
a 29 30 11
a 30 29 5
a 29 39 18
a 39 29 3
a 30 40 11
a 40 30 18
a 31 32 11
a 32 31 13
a 31 41 18
a 41 31 16
a 32 33 19
a 33 32 7
a 32 42 1
a 42 32 17
a 33 34 1
a 34 33 14
a 33 43 10
a 43 33 14
a 34 35 11
a 35 34 18
a 34 44 14
a 44 34 4
a 35 36 11
a 36 35 16
a 35 45 12
a 45 35 7
a 36 37 2
a 37 36 8
a 36 46 2
a 46 36 1
a 37 38 12
a 38 37 10
a 37 47 12
a 47 37 10
a 38 39 11
a 39 38 4
a 38 48 7
a 48 38 10
a 39 40 9
a 40 39 10
a 39 49 4
a 49 39 14
a 40 50 5
a 50 40 12
a 41 42 5
a 42 41 13
a 41 51 7
a 51 41 19
a 42 43 1
a 43 42 10
a 42 52 6
a 52 42 3
a 43 44 3
a 44 43 14
a 43 53 19
a 53 43 5
a 44 45 14
a 45 44 16
a 44 54 9
a 54 44 17
a 45 46 8
a 46 45 19
a 45 55 16
a 55 45 10
a 46 47 3
a 47 46 4
a 46 56 15
a 56 46 8
a 47 48 1
a 48 47 4
a 47 57 14
a 57 47 12
a 48 49 17
a 49 48 19
a 48 58 19
a 58 48 1
a 49 50 5
a 50 49 4
a 49 59 1
a 59 49 4
a 50 60 11
a 60 50 15
a 51 52 14
a 52 51 1
a 51 61 7
a 61 51 16
a 52 53 10
a 53 52 6
a 52 62 15
a 62 52 4
a 53 54 11
a 54 53 11
a 53 63 10
a 63 53 7
a 54 55 10
a 55 54 11
a 54 64 15
a 64 54 1
a 55 56 10
a 56 55 4
a 55 65 16
a 65 55 18
a 56 57 15
a 57 56 17
a 56 66 18
a 66 56 17
a 57 58 10
a 58 57 19
a 57 67 4
a 67 57 7
a 58 59 6
a 59 58 15
a 58 68 13
a 68 58 4
a 59 60 4
a 60 59 8
a 59 69 1
a 69 59 16
a 60 70 16
a 70 60 14
a 61 62 1
a 62 61 12
a 61 71 6
a 71 61 19
a 62 63 1
a 63 62 13
a 62 72 4
a 72 62 17
a 63 64 5
a 64 63 2
a 63 73 12
a 73 63 17
a 64 65 14
a 65 64 14
a 64 74 3
a 74 64 10
a 65 66 1
a 66 65 8
a 65 75 14
a 75 65 9
a 66 67 12
a 67 66 1
a 66 76 14
a 76 66 1
a 67 68 11
a 68 67 6
a 67 77 3
a 77 67 16
a 68 69 15
a 69 68 15
a 68 78 12
a 78 68 17
a 69 70 15
a 70 69 15
a 69 79 7
a 79 69 11
a 70 80 1
a 80 70 12
a 71 72 11
a 72 71 16
a 71 81 9
a 81 71 17
a 72 73 12
a 73 72 14
a 72 82 13
a 82 72 13
a 73 74 11
a 74 73 17
a 73 83 9
a 83 73 17
a 74 75 17
a 75 74 14
a 74 84 10
a 84 74 17
a 75 76 7
a 76 75 15
a 75 85 6
a 85 75 10
a 76 77 18
a 77 76 10
a 76 86 18
a 86 76 13
a 77 78 19
a 78 77 9
a 77 87 3
a 87 77 2
a 78 79 13
a 79 78 1
a 78 88 1
a 88 78 1
a 79 80 5
a 80 79 16
a 79 89 2
a 89 79 4
a 80 90 1
a 90 80 6
a 81 82 1
a 82 81 9
a 81 91 3
a 91 81 12
a 82 83 1
a 83 82 17
a 82 92 17
a 92 82 12
a 83 84 16
a 84 83 12
a 83 93 2
a 93 83 1
a 84 85 1
a 85 84 16
a 84 94 3
a 94 84 16
a 85 86 9
a 86 85 4
a 85 95 3
a 95 85 4
a 86 87 3
a 87 86 5
a 86 96 18
a 96 86 16
a 87 88 6
a 88 87 12
a 87 97 9
a 97 87 17
a 88 89 16
a 89 88 14
a 88 98 6
a 98 88 17
a 89 90 4
a 90 89 19
a 89 99 15
a 99 89 13
a 90 100 1
a 100 90 8
a 91 92 12
a 92 91 8
a 92 93 1
a 93 92 16
a 93 94 19
a 94 93 19
a 94 95 16
a 95 94 19
a 95 96 19
a 96 95 18
a 96 97 8
a 97 96 17
a 97 98 19
a 98 97 5
a 98 99 2
a 99 98 10
a 99 100 6
a 100 99 19
