p sp 100 360
a 1 2 3
a 2 1 10
a 1 11 10
a 11 1 19
a 2 3 3
a 3 2 9
a 2 12 1
a 12 2 19
a 3 4 16
a 4 3 13
a 3 13 15
a 13 3 12
a 4 5 1
a 5 4 11
a 4 14 9
a 14 4 4
a 5 6 1
a 6 5 11
a 5 15 19
a 15 5 13
a 6 7 12
a 7 6 17
a 6 16 13
a 16 6 1
a 7 8 9
a 8 7 16
a 7 17 1
a 17 7 14
a 8 9 10
a 9 8 16
a 8 18 10
a 18 8 10
a 9 10 6
a 10 9 18
a 9 19 10
a 19 9 15
a 10 20 15
a 20 10 19
a 11 12 18
a 12 11 13
a 11 21 6
a 21 11 16
a 12 13 2
a 13 12 10
a 12 22 9
a 22 12 14
a 13 14 7
a 14 13 1
a 13 23 4
a 23 13 4
a 14 15 14
a 15 14 10
a 14 24 5
a 24 14 1
a 15 16 16
a 16 15 14
a 15 25 14
a 25 15 16
a 16 17 1
a 17 16 4
a 16 26 1
a 26 16 1
a 17 18 7
a 18 17 9
a 17 27 4
a 27 17 13
a 18 19 15
a 19 18 4
a 18 28 1
a 28 18 6
a 19 20 18
a 20 19 13
a 19 29 2
a 29 19 14
a 20 30 4
a 30 20 11
a 21 22 10
a 22 21 12
a 21 31 2
a 31 21 17
a 22 23 17
a 23 22 19
a 22 32 16
a 32 22 19
a 23 24 6
a 24 23 13
a 23 33 12
a 33 23 11
a 24 25 8
a 25 24 11
a 24 34 8
a 34 24 10
a 25 26 2
a 26 25 11
a 25 35 6
a 35 25 5
a 26 27 9
a 27 26 8
a 26 36 9
a 36 26 9
a 27 28 1
a 28 27 17
a 27 37 12
a 37 27 6
a 28 29 1
a 29 28 1
a 28 38 5
a 38 28 6
a 29 30 16
a 30 29 17
a 29 39 19
a 39 29 14
a 30 40 9
a 40 30 18
a 31 32 1
a 32 31 5
a 31 41 12
a 41 31 7
a 32 33 13
a 33 32 3
a 32 42 4
a 42 32 7
a 33 34 15
a 34 33 7
a 33 43 1
a 43 33 14
a 34 35 10
a 35 34 10
a 34 44 6
a 44 34 8
a 35 36 6
a 36 35 1
a 35 45 15
a 45 35 10
a 36 37 11
a 37 36 2
a 36 46 2
a 46 36 13
a 37 38 12
a 38 37 19
a 37 47 16
a 47 37 9
a 38 39 7
a 39 38 6
a 38 48 9
a 48 38 15
a 39 40 2
a 40 39 12
a 39 49 7
a 49 39 19
a 40 50 16
a 50 40 17
a 41 42 11
a 42 41 4
a 41 51 19
a 51 41 1
a 42 43 5
a 43 42 1
a 42 52 2
a 52 42 17
a 43 44 13
a 44 43 4
a 43 53 15
a 53 43 18
a 44 45 16
a 45 44 5
a 44 54 5
a 54 44 7
a 45 46 17
a 46 45 6
a 45 55 9
a 55 45 16
a 46 47 14
a 47 46 14
a 46 56 11
a 56 46 8
a 47 48 11
a 48 47 5
a 47 57 4
a 57 47 5
a 48 49 13
a 49 48 7
a 48 58 10
a 58 48 7
a 49 50 15
a 50 49 5
a 49 59 12
a 59 49 2
a 50 60 5
a 60 50 19
a 51 52 13
a 52 51 19
a 51 61 1
a 61 51 15
a 52 53 12
a 53 52 1
a 52 62 9
a 62 52 7
a 53 54 3
a 54 53 19
a 53 63 3
a 63 53 14
a 54 55 9
a 55 54 16
a 54 64 16
a 64 54 11
a 55 56 1
a 56 55 8
a 55 65 12
a 65 55 19
a 56 57 10
a 57 56 2
a 56 66 13
a 66 56 18
a 57 58 14
a 58 57 1
a 57 67 10
a 67 57 14
a 58 59 15
a 59 58 15
a 58 68 3
a 68 58 14
a 59 60 7
a 60 59 19
a 59 69 8
a 69 59 9
a 60 70 16
a 70 60 19
a 61 62 2
a 62 61 6
a 61 71 11
a 71 61 18
a 62 63 2
a 63 62 14
a 62 72 19
a 72 62 17
a 63 64 6
a 64 63 15
a 63 73 9
a 73 63 18
a 64 65 4
a 65 64 3
a 64 74 19
a 74 64 13
a 65 66 16
a 66 65 7
a 65 75 2
a 75 65 4
a 66 67 11
a 67 66 9
a 66 76 13
a 76 66 7
a 67 68 9
a 68 67 14
a 67 77 4
a 77 67 1
a 68 69 16
a 69 68 3
a 68 78 19
a 78 68 5
a 69 70 1
a 70 69 17
a 69 79 18
a 79 69 1
a 70 80 19
a 80 70 3
a 71 72 3
a 72 71 16
a 71 81 5
a 81 71 8
a 72 73 13
a 73 72 15
a 72 82 2
a 82 72 5
a 73 74 18
a 74 73 5
a 73 83 9
a 83 73 1
a 74 75 6
a 75 74 16
a 74 84 17
a 84 74 6
a 75 76 1
a 76 75 1
a 75 85 15
a 85 75 17
a 76 77 5
a 77 76 7
a 76 86 7
a 86 76 11
a 77 78 3
a 78 77 15
a 77 87 5
a 87 77 6
a 78 79 1
a 79 78 6
a 78 88 17
a 88 78 17
a 79 80 10
a 80 79 3
a 79 89 1
a 89 79 14
a 80 90 7
a 90 80 6
a 81 82 12
a 82 81 2
a 81 91 19
a 91 81 10
a 82 83 12
a 83 82 11
a 82 92 10
a 92 82 14
a 83 84 15
a 84 83 2
a 83 93 6
a 93 83 15
a 84 85 14
a 85 84 4
a 84 94 4
a 94 84 6
a 85 86 6
a 86 85 12
a 85 95 7
a 95 85 12
a 86 87 9
a 87 86 10
a 86 96 10
a 96 86 2
a 87 88 8
a 88 87 4
a 87 97 6
a 97 87 17
a 88 89 7
a 89 88 1
a 88 98 7
a 98 88 16
a 89 90 5
a 90 89 6
a 89 99 11
a 99 89 11
a 90 100 16
a 100 90 1
a 91 92 1
a 92 91 17
a 92 93 5
a 93 92 5
a 93 94 15
a 94 93 9
a 94 95 8
a 95 94 19
a 95 96 15
a 96 95 3
a 96 97 11
a 97 96 11
a 97 98 13
a 98 97 4
a 98 99 11
a 99 98 15
a 99 100 10
a 100 99 13
