p sp 81 288
a 1 2 2
a 2 1 2
a 1 10 2
a 10 1 8
a 2 3 13
a 3 2 2
a 2 11 14
a 11 2 10
a 3 4 17
a 4 3 14
a 3 12 12
a 12 3 9
a 4 5 3
a 5 4 7
a 4 13 8
a 13 4 16
a 5 6 18
a 6 5 5
a 5 14 9
a 14 5 3
a 6 7 1
a 7 6 1
a 6 15 11
a 15 6 3
a 7 8 17
a 8 7 13
a 7 16 4
a 16 7 5
a 8 9 10
a 9 8 17
a 8 17 4
a 17 8 3
a 9 18 9
a 18 9 17
a 10 11 8
a 11 10 18
a 10 19 16
a 19 10 11
a 11 12 1
a 12 11 4
a 11 20 11
a 20 11 6
a 12 13 9
a 13 12 10
a 12 21 2
a 21 12 4
a 13 14 9
a 14 13 15
a 13 22 6
a 22 13 16
a 14 15 11
a 15 14 17
a 14 23 13
a 23 14 14
a 15 16 16
a 16 15 6
a 15 24 8
a 24 15 20
a 16 17 3
a 17 16 19
a 16 25 16
a 25 16 8
a 17 18 14
a 18 17 14
a 17 26 11
a 26 17 15
a 18 27 13
a 27 18 2
a 19 20 4
a 20 19 15
a 19 28 13
a 28 19 11
a 20 21 5
a 21 20 11
a 20 29 14
a 29 20 4
a 21 22 15
a 22 21 5
a 21 30 12
a 30 21 4
a 22 23 1
a 23 22 12
a 22 31 10
a 31 22 1
a 23 24 11
a 24 23 13
a 23 32 16
a 32 23 1
a 24 25 6
a 25 24 4
a 24 33 5
a 33 24 17
a 25 26 10
a 26 25 4
a 25 34 6
a 34 25 8
a 26 27 18
a 27 26 3
a 26 35 19
a 35 26 20
a 27 36 10
a 36 27 14
a 28 29 8
a 29 28 19
a 28 37 3
a 37 28 7
a 29 30 14
a 30 29 13
a 29 38 5
a 38 29 14
a 30 31 17
a 31 30 5
a 30 39 8
a 39 30 15
a 31 32 11
a 32 31 19
a 31 40 4
a 40 31 5
a 32 33 17
a 33 32 9
a 32 41 2
a 41 32 5
a 33 34 17
a 34 33 5
a 33 42 3
a 42 33 14
a 34 35 1
a 35 34 8
a 34 43 8
a 43 34 16
a 35 36 12
a 36 35 2
a 35 44 20
a 44 35 3
a 36 45 14
a 45 36 17
a 37 38 4
a 38 37 14
a 37 46 2
a 46 37 11
a 38 39 6
a 39 38 11
a 38 47 5
a 47 38 18
a 39 40 11
a 40 39 6
a 39 48 15
a 48 39 13
a 40 41 19
a 41 40 2
a 40 49 9
a 49 40 8
a 41 42 3
a 42 41 19
a 41 50 6
a 50 41 7
a 42 43 10
a 43 42 6
a 42 51 4
a 51 42 6
a 43 44 17
a 44 43 5
a 43 52 19
a 52 43 10
a 44 45 5
a 45 44 5
a 44 53 8
a 53 44 1
a 45 54 20
a 54 45 10
a 46 47 7
a 47 46 16
a 46 55 3
a 55 46 1
a 47 48 15
a 48 47 12
a 47 56 19
a 56 47 12
a 48 49 8
a 49 48 18
a 48 57 9
a 57 48 1
a 49 50 5
a 50 49 1
a 49 58 1
a 58 49 6
a 50 51 9
a 51 50 19
a 50 59 8
a 59 50 14
a 51 52 2
a 52 51 8
a 51 60 20
a 60 51 3
a 52 53 18
a 53 52 7
a 52 61 17
a 61 52 5
a 53 54 5
a 54 53 20
a 53 62 19
a 62 53 6
a 54 63 19
a 63 54 16
a 55 56 19
a 56 55 3
a 55 64 13
a 64 55 7
a 56 57 8
a 57 56 13
a 56 65 8
a 65 56 11
a 57 58 18
a 58 57 6
a 57 66 19
a 66 57 4
a 58 59 13
a 59 58 7
a 58 67 1
a 67 58 11
a 59 60 19
a 60 59 15
a 59 68 19
a 68 59 8
a 60 61 10
a 61 60 12
a 60 69 1
a 69 60 13
a 61 62 7
a 62 61 2
a 61 70 17
a 70 61 5
a 62 63 10
a 63 62 9
a 62 71 11
a 71 62 18
a 63 72 11
a 72 63 8
a 64 65 8
a 65 64 11
a 64 73 18
a 73 64 5
a 65 66 9
a 66 65 19
a 65 74 10
a 74 65 13
a 66 67 10
a 67 66 7
a 66 75 11
a 75 66 8
a 67 68 17
a 68 67 6
a 67 76 15
a 76 67 5
a 68 69 6
a 69 68 6
a 68 77 2
a 77 68 17
a 69 70 1
a 70 69 11
a 69 78 6
a 78 69 13
a 70 71 15
a 71 70 16
a 70 79 7
a 79 70 16
a 71 72 19
a 72 71 7
a 71 80 7
a 80 71 19
a 72 81 14
a 81 72 19
a 73 74 13
a 74 73 12
a 74 75 20
a 75 74 9
a 75 76 17
a 76 75 10
a 76 77 12
a 77 76 2
a 77 78 2
a 78 77 14
a 78 79 7
a 79 78 6
a 79 80 11
a 80 79 5
a 80 81 12
a 81 80 11
