p sp 81 288
a 1 2 9
a 2 1 13
a 1 10 5
a 10 1 4
a 2 3 1
a 3 2 2
a 2 11 18
a 11 2 10
a 3 4 18
a 4 3 17
a 3 12 16
a 12 3 4
a 4 5 16
a 5 4 20
a 4 13 12
a 13 4 5
a 5 6 13
a 6 5 15
a 5 14 13
a 14 5 18
a 6 7 20
a 7 6 11
a 6 15 13
a 15 6 4
a 7 8 10
a 8 7 10
a 7 16 5
a 16 7 15
a 8 9 13
a 9 8 15
a 8 17 19
a 17 8 9
a 9 18 12
a 18 9 3
a 10 11 1
a 11 10 16
a 10 19 11
a 19 10 12
a 11 12 22
a 12 11 1
a 11 20 11
a 20 11 13
a 12 13 4
a 13 12 1
a 12 21 13
a 21 12 16
a 13 14 15
a 14 13 16
a 13 22 2
a 22 13 17
a 14 15 11
a 15 14 19
a 14 23 5
a 23 14 10
a 15 16 2
a 16 15 18
a 15 24 9
a 24 15 16
a 16 17 13
a 17 16 11
a 16 25 1
a 25 16 5
a 17 18 9
a 18 17 7
a 17 26 4
a 26 17 5
a 18 27 17
a 27 18 10
a 19 20 16
a 20 19 16
a 19 28 1
a 28 19 1
a 20 21 17
a 21 20 1
a 20 29 4
a 29 20 16
a 21 22 4
a 22 21 1
a 21 30 6
a 30 21 7
a 22 23 22
a 23 22 10
a 22 31 11
a 31 22 10
a 23 24 14
a 24 23 1
a 23 32 7
a 32 23 9
a 24 25 2
a 25 24 1
a 24 33 8
a 33 24 17
a 25 26 8
a 26 25 22
a 25 34 3
a 34 25 1
a 26 27 6
a 27 26 1
a 26 35 1
a 35 26 16
a 27 36 5
a 36 27 1
a 28 29 1
a 29 28 11
a 28 37 16
a 37 28 1
a 29 30 15
a 30 29 13
a 29 38 3
a 38 29 6
a 30 31 17
a 31 30 18
a 30 39 18
a 39 30 10
a 31 32 4
a 32 31 1
a 31 40 22
a 40 31 18
a 32 33 14
a 33 32 10
a 32 41 18
a 41 32 5
a 33 34 2
a 34 33 8
a 33 42 15
a 42 33 12
a 34 35 3
a 35 34 18
a 34 43 1
a 43 34 12
a 35 36 18
a 36 35 3
a 35 44 14
a 44 35 6
a 36 45 15
a 45 36 10
a 37 38 12
a 38 37 14
a 37 46 3
a 46 37 11
a 38 39 2
a 39 38 1
a 38 47 11
a 47 38 1
a 39 40 6
a 40 39 5
a 39 48 13
a 48 39 14
a 40 41 17
a 41 40 5
a 40 49 21
a 49 40 14
a 41 42 12
a 42 41 1
a 41 50 15
a 50 41 9
a 42 43 5
a 43 42 10
a 42 51 7
a 51 42 15
a 43 44 1
a 44 43 7
a 43 52 9
a 52 43 13
a 44 45 6
a 45 44 20
a 44 53 16
a 53 44 17
a 45 54 11
a 54 45 7
a 46 47 1
a 47 46 1
a 46 55 15
a 55 46 4
a 47 48 7
a 48 47 1
a 47 56 15
a 56 47 14
a 48 49 4
a 49 48 4
a 48 57 19
a 57 48 8
a 49 50 21
a 50 49 16
a 49 58 9
a 58 49 4
a 50 51 12
a 51 50 11
a 50 59 15
a 59 50 6
a 51 52 1
a 52 51 1
a 51 60 9
a 60 51 1
a 52 53 14
a 53 52 17
a 52 61 3
a 61 52 19
a 53 54 1
a 54 53 12
a 53 62 1
a 62 53 5
a 54 63 6
a 63 54 18
a 55 56 9
a 56 55 4
a 55 64 15
a 64 55 7
a 56 57 14
a 57 56 4
a 56 65 4
a 65 56 4
a 57 58 7
a 58 57 10
a 57 66 1
a 66 57 1
a 58 59 1
a 59 58 8
a 58 67 1
a 67 58 18
a 59 60 19
a 60 59 1
a 59 68 16
a 68 59 6
a 60 61 1
a 61 60 10
a 60 69 2
a 69 60 5
a 61 62 19
a 62 61 3
a 61 70 15
a 70 61 3
a 62 63 7
a 63 62 17
a 62 71 1
a 71 62 19
a 63 72 15
a 72 63 15
a 64 65 15
a 65 64 18
a 64 73 1
a 73 64 17
a 65 66 3
a 66 65 6
a 65 74 1
a 74 65 10
a 66 67 14
a 67 66 5
a 66 75 3
a 75 66 14
a 67 68 19
a 68 67 9
a 67 76 5
a 76 67 14
a 68 69 1
a 69 68 19
a 68 77 2
a 77 68 9
a 69 70 22
a 70 69 17
a 69 78 5
a 78 69 2
a 70 71 7
a 71 70 8
a 70 79 9
a 79 70 13
a 71 72 16
a 72 71 5
a 71 80 4
a 80 71 1
a 72 81 1
a 81 72 9
a 73 74 2
a 74 73 4
a 74 75 1
a 75 74 19
a 75 76 14
a 76 75 12
a 76 77 1
a 77 76 20
a 77 78 4
a 78 77 6
a 78 79 20
a 79 78 8
a 79 80 8
a 80 79 12
a 80 81 20
a 81 80 7
