p sp 81 288
a 1 2 2
a 2 1 20
a 1 10 4
a 10 1 1
a 2 3 1
a 3 2 4
a 2 11 15
a 11 2 17
a 3 4 8
a 4 3 20
a 3 12 1
a 12 3 10
a 4 5 13
a 5 4 1
a 4 13 18
a 13 4 17
a 5 6 10
a 6 5 6
a 5 14 13
a 14 5 12
a 6 7 14
a 7 6 9
a 6 15 11
a 15 6 12
a 7 8 17
a 8 7 2
a 7 16 20
a 16 7 1
a 8 9 1
a 9 8 17
a 8 17 12
a 17 8 18
a 9 18 1
a 18 9 1
a 10 11 21
a 11 10 1
a 10 19 1
a 19 10 6
a 11 12 22
a 12 11 12
a 11 20 4
a 20 11 1
a 12 13 18
a 13 12 7
a 12 21 1
a 21 12 20
a 13 14 19
a 14 13 18
a 13 22 1
a 22 13 1
a 14 15 6
a 15 14 7
a 14 23 1
a 23 14 12
a 15 16 3
a 16 15 5
a 15 24 17
a 24 15 16
a 16 17 15
a 17 16 11
a 16 25 3
a 25 16 1
a 17 18 17
a 18 17 3
a 17 26 17
a 26 17 12
a 18 27 4
a 27 18 4
a 19 20 12
a 20 19 10
a 19 28 1
a 28 19 4
a 20 21 3
a 21 20 1
a 20 29 11
a 29 20 1
a 21 22 5
a 22 21 1
a 21 30 1
a 30 21 9
a 22 23 20
a 23 22 2
a 22 31 10
a 31 22 2
a 23 24 1
a 24 23 4
a 23 32 17
a 32 23 1
a 24 25 3
a 25 24 12
a 24 33 14
a 33 24 1
a 25 26 14
a 26 25 2
a 25 34 13
a 34 25 14
a 26 27 12
a 27 26 2
a 26 35 16
a 35 26 8
a 27 36 13
a 36 27 1
a 28 29 15
a 29 28 16
a 28 37 1
a 37 28 3
a 29 30 20
a 30 29 1
a 29 38 20
a 38 29 7
a 30 31 1
a 31 30 21
a 30 39 16
a 39 30 7
a 31 32 3
a 32 31 14
a 31 40 1
a 40 31 2
a 32 33 8
a 33 32 16
a 32 41 4
a 41 32 13
a 33 34 14
a 34 33 12
a 33 42 17
a 42 33 1
a 34 35 1
a 35 34 18
a 34 43 4
a 43 34 1
a 35 36 8
a 36 35 20
a 35 44 15
a 44 35 5
a 36 45 1
a 45 36 1
a 37 38 5
a 38 37 12
a 37 46 10
a 46 37 11
a 38 39 1
a 39 38 4
a 38 47 21
a 47 38 19
a 39 40 15
a 40 39 15
a 39 48 6
a 48 39 1
a 40 41 19
a 41 40 15
a 40 49 6
a 49 40 1
a 41 42 16
a 42 41 1
a 41 50 8
a 50 41 5
a 42 43 20
a 43 42 21
a 42 51 1
a 51 42 14
a 43 44 19
a 44 43 9
a 43 52 10
a 52 43 13
a 44 45 7
a 45 44 6
a 44 53 1
a 53 44 14
a 45 54 1
a 54 45 6
a 46 47 1
a 47 46 2
a 46 55 19
a 55 46 9
a 47 48 1
a 48 47 6
a 47 56 1
a 56 47 14
a 48 49 10
a 49 48 12
a 48 57 11
a 57 48 17
a 49 50 12
a 50 49 11
a 49 58 4
a 58 49 7
a 50 51 18
a 51 50 5
a 50 59 9
a 59 50 14
a 51 52 8
a 52 51 17
a 51 60 1
a 60 51 18
a 52 53 7
a 53 52 21
a 52 61 7
a 61 52 13
a 53 54 12
a 54 53 1
a 53 62 19
a 62 53 9
a 54 63 3
a 63 54 6
a 55 56 2
a 56 55 4
a 55 64 4
a 64 55 4
a 56 57 3
a 57 56 1
a 56 65 6
a 65 56 12
a 57 58 10
a 58 57 7
a 57 66 2
a 66 57 17
a 58 59 3
a 59 58 7
a 58 67 2
a 67 58 2
a 59 60 4
a 60 59 10
a 59 68 4
a 68 59 4
a 60 61 6
a 61 60 1
a 60 69 9
a 69 60 10
a 61 62 14
a 62 61 3
a 61 70 1
a 70 61 20
a 62 63 1
a 63 62 1
a 62 71 2
a 71 62 19
a 63 72 19
a 72 63 10
a 64 65 12
a 65 64 18
a 64 73 15
a 73 64 14
a 65 66 6
a 66 65 8
a 65 74 6
a 74 65 13
a 66 67 18
a 67 66 4
a 66 75 8
a 75 66 15
a 67 68 1
a 68 67 9
a 67 76 1
a 76 67 20
a 68 69 19
a 69 68 19
a 68 77 8
a 77 68 2
a 69 70 9
a 70 69 19
a 69 78 9
a 78 69 9
a 70 71 1
a 71 70 1
a 70 79 16
a 79 70 5
a 71 72 19
a 72 71 1
a 71 80 8
a 80 71 1
a 72 81 1
a 81 72 17
a 73 74 3
a 74 73 1
a 74 75 4
a 75 74 4
a 75 76 17
a 76 75 1
a 76 77 7
a 77 76 18
a 77 78 10
a 78 77 20
a 78 79 15
a 79 78 14
a 79 80 17
a 80 79 12
a 80 81 1
a 81 80 4
