p sp 81 288
a 1 2 9
a 2 1 11
a 1 10 20
a 10 1 1
a 2 3 14
a 3 2 1
a 2 11 15
a 11 2 5
a 3 4 10
a 4 3 16
a 3 12 1
a 12 3 18
a 4 5 11
a 5 4 1
a 4 13 1
a 13 4 2
a 5 6 1
a 6 5 8
a 5 14 1
a 14 5 1
a 6 7 20
a 7 6 1
a 6 15 3
a 15 6 1
a 7 8 1
a 8 7 9
a 7 16 14
a 16 7 15
a 8 9 17
a 9 8 8
a 8 17 20
a 17 8 6
a 9 18 1
a 18 9 6
a 10 11 1
a 11 10 1
a 10 19 18
a 19 10 2
a 11 12 11
a 12 11 12
a 11 20 9
a 20 11 13
a 12 13 11
a 13 12 20
a 12 21 13
a 21 12 7
a 13 14 11
a 14 13 9
a 13 22 16
a 22 13 17
a 14 15 1
a 15 14 1
a 14 23 8
a 23 14 20
a 15 16 6
a 16 15 16
a 15 24 1
a 24 15 3
a 16 17 2
a 17 16 9
a 16 25 5
a 25 16 1
a 17 18 1
a 18 17 1
a 17 26 11
a 26 17 16
a 18 27 1
a 27 18 3
a 19 20 22
a 20 19 10
a 19 28 1
a 28 19 3
a 20 21 5
a 21 20 6
a 20 29 1
a 29 20 1
a 21 22 12
a 22 21 11
a 21 30 18
a 30 21 4
a 22 23 15
a 23 22 1
a 22 31 11
a 31 22 5
a 23 24 18
a 24 23 10
a 23 32 2
a 32 23 6
a 24 25 2
a 25 24 8
a 24 33 21
a 33 24 1
a 25 26 1
a 26 25 13
a 25 34 14
a 34 25 1
a 26 27 10
a 27 26 13
a 26 35 6
a 35 26 1
a 27 36 16
a 36 27 1
a 28 29 5
a 29 28 1
a 28 37 10
a 37 28 2
a 29 30 9
a 30 29 1
a 29 38 12
a 38 29 3
a 30 31 18
a 31 30 2
a 30 39 11
a 39 30 18
a 31 32 11
a 32 31 11
a 31 40 20
a 40 31 18
a 32 33 19
a 33 32 6
a 32 41 1
a 41 32 19
a 33 34 1
a 34 33 15
a 33 42 11
a 42 33 14
a 34 35 13
a 35 34 19
a 34 43 15
a 43 34 1
a 35 36 10
a 36 35 18
a 35 44 10
a 44 35 7
a 36 45 1
a 45 36 6
a 37 38 1
a 38 37 1
a 37 46 13
a 46 37 9
a 38 39 13
a 39 38 9
a 38 47 12
a 47 38 1
a 39 40 6
a 40 39 10
a 39 48 7
a 48 39 9
a 40 41 1
a 41 40 16
a 40 49 4
a 49 40 12
a 41 42 5
a 42 41 11
a 41 50 7
a 50 41 21
a 42 43 1
a 43 42 10
a 42 51 6
a 51 42 2
a 43 44 1
a 44 43 15
a 43 52 19
a 52 43 4
a 44 45 15
a 45 44 18
a 44 53 9
a 53 44 20
a 45 54 5
a 54 45 20
a 46 47 17
a 47 46 8
a 46 55 2
a 55 46 4
a 47 48 15
a 48 47 7
a 47 56 1
a 56 47 2
a 48 49 15
a 49 48 10
a 48 57 18
a 57 48 22
a 49 50 21
a 50 49 1
a 49 58 5
a 58 49 3
a 50 51 1
a 51 50 1
a 50 59 11
a 59 50 15
a 51 52 16
a 52 51 1
a 51 60 4
a 60 51 18
a 52 53 8
a 53 52 5
a 52 61 14
a 61 52 3
a 53 54 12
a 54 53 9
a 53 62 8
a 62 53 7
a 54 63 8
a 63 54 10
a 55 56 14
a 56 55 1
a 55 64 9
a 64 55 3
a 56 57 17
a 57 56 18
a 56 65 16
a 65 56 18
a 57 58 17
a 58 57 19
a 57 66 8
a 66 57 22
a 58 59 2
a 59 58 7
a 58 67 6
a 67 58 15
a 59 60 11
a 60 59 1
a 59 68 1
a 68 59 8
a 60 61 1
a 61 60 16
a 60 69 19
a 69 60 14
a 61 62 1
a 62 61 13
a 61 70 3
a 70 61 21
a 62 63 1
a 63 62 13
a 62 71 2
a 71 62 16
a 63 72 3
a 72 63 1
a 64 65 12
a 65 64 18
a 64 73 13
a 73 64 15
a 65 66 1
a 66 65 8
a 65 74 1
a 74 65 7
a 66 67 14
a 67 66 9
a 66 75 12
a 75 66 1
a 67 68 13
a 68 67 1
a 67 76 10
a 76 67 6
a 68 69 2
a 69 68 18
a 68 77 17
a 77 68 14
a 69 70 14
a 70 69 18
a 69 78 16
a 78 69 15
a 70 71 5
a 71 70 10
a 70 79 1
a 79 70 11
a 71 72 9
a 72 71 17
a 71 80 9
a 80 71 16
a 72 81 11
a 81 72 13
a 73 74 13
a 74 73 13
a 74 75 9
a 75 74 18
a 75 76 7
a 76 75 18
a 76 77 18
a 77 76 16
a 77 78 11
a 78 77 17
a 78 79 7
a 79 78 16
a 79 80 4
a 80 79 11
a 80 81 19
a 81 80 9
