p sp 64 224
a 1 2 2
a 2 1 18
a 1 9 18
a 9 1 13
a 2 3 5
a 3 2 16
a 2 10 17
a 10 2 20
a 3 4 3
a 4 3 3
a 3 11 3
a 11 3 2
a 4 5 18
a 5 4 7
a 4 12 4
a 12 4 1
a 5 6 9
a 6 5 6
a 5 13 17
a 13 5 5
a 6 7 14
a 7 6 10
a 6 14 18
a 14 6 19
a 7 8 9
a 8 7 1
a 7 15 3
a 15 7 16
a 8 16 8
a 16 8 11
a 9 10 11
a 10 9 2
a 9 17 12
a 17 9 2
a 10 11 19
a 11 10 12
a 10 18 6
a 18 10 2
a 11 12 2
a 12 11 13
a 11 19 14
a 19 11 9
a 12 13 8
a 13 12 18
a 12 20 4
a 20 12 16
a 13 14 3
a 14 13 2
a 13 21 11
a 21 13 14
a 14 15 3
a 15 14 4
a 14 22 12
a 22 14 4
a 15 16 5
a 16 15 4
a 15 23 2
a 23 15 15
a 16 24 1
a 24 16 18
a 17 18 1
a 18 17 5
a 17 25 12
a 25 17 11
a 18 19 7
a 19 18 6
a 18 26 6
a 26 18 12
a 19 20 20
a 20 19 10
a 19 27 4
a 27 19 14
a 20 21 18
a 21 20 4
a 20 28 10
a 28 20 10
a 21 22 5
a 22 21 7
a 21 29 3
a 29 21 5
a 22 23 11
a 23 22 5
a 22 30 10
a 30 22 19
a 23 24 8
a 24 23 10
a 23 31 12
a 31 23 4
a 24 32 4
a 32 24 20
a 25 26 2
a 26 25 13
a 25 33 1
a 33 25 3
a 26 27 3
a 27 26 12
a 26 34 8
a 34 26 1
a 27 28 12
a 28 27 20
a 27 35 6
a 35 27 3
a 28 29 4
a 29 28 14
a 28 36 13
a 36 28 6
a 29 30 7
a 30 29 12
a 29 37 11
a 37 29 15
a 30 31 10
a 31 30 19
a 30 38 14
a 38 30 6
a 31 32 3
a 32 31 5
a 31 39 8
a 39 31 10
a 32 40 20
a 40 32 7
a 33 34 17
a 34 33 10
a 33 41 20
a 41 33 5
a 34 35 7
a 35 34 10
a 34 42 20
a 42 34 8
a 35 36 17
a 36 35 3
a 35 43 9
a 43 35 16
a 36 37 19
a 37 36 15
a 36 44 15
a 44 36 9
a 37 38 16
a 38 37 20
a 37 45 1
a 45 37 8
a 38 39 2
a 39 38 8
a 38 46 15
a 46 38 15
a 39 40 20
a 40 39 17
a 39 47 11
a 47 39 17
a 40 48 13
a 48 40 12
a 41 42 19
a 42 41 10
a 41 49 11
a 49 41 19
a 42 43 5
a 43 42 11
a 42 50 8
a 50 42 1
a 43 44 16
a 44 43 18
a 43 51 8
a 51 43 11
a 44 45 13
a 45 44 8
a 44 52 7
a 52 44 19
a 45 46 12
a 46 45 5
a 45 53 10
a 53 45 4
a 46 47 17
a 47 46 7
a 46 54 4
a 54 46 7
a 47 48 10
a 48 47 3
a 47 55 5
a 55 47 11
a 48 56 11
a 56 48 13
a 49 50 18
a 50 49 14
a 49 57 4
a 57 49 10
a 50 51 14
a 51 50 15
a 50 58 11
a 58 50 15
a 51 52 15
a 52 51 15
a 51 59 19
a 59 51 4
a 52 53 2
a 53 52 6
a 52 60 13
a 60 52 6
a 53 54 11
a 54 53 8
a 53 61 7
a 61 53 8
a 54 55 12
a 55 54 7
a 54 62 1
a 62 54 13
a 55 56 13
a 56 55 2
a 55 63 12
a 63 55 17
a 56 64 1
a 64 56 18
a 57 58 2
a 58 57 20
a 58 59 8
a 59 58 11
a 59 60 12
a 60 59 19
a 60 61 16
a 61 60 20
a 61 62 20
a 62 61 3
a 62 63 5
a 63 62 14
a 63 64 17
a 64 63 8
