p sp 64 224
a 1 2 8
a 2 1 17
a 1 9 10
a 9 1 2
a 2 3 4
a 3 2 1
a 2 10 18
a 10 2 15
a 3 4 15
a 4 3 14
a 3 11 11
a 11 3 9
a 4 5 14
a 5 4 1
a 4 12 19
a 12 4 17
a 5 6 15
a 6 5 13
a 5 13 12
a 13 5 17
a 6 7 1
a 7 6 13
a 6 14 4
a 14 6 10
a 7 8 12
a 8 7 6
a 7 15 10
a 15 7 12
a 8 16 16
a 16 8 18
a 9 10 11
a 10 9 13
a 9 17 2
a 17 9 12
a 10 11 10
a 11 10 7
a 10 18 3
a 18 10 15
a 11 12 14
a 12 11 7
a 11 19 1
a 19 11 16
a 12 13 9
a 13 12 8
a 12 20 1
a 20 12 4
a 13 14 12
a 14 13 7
a 13 21 6
a 21 13 7
a 14 15 15
a 15 14 14
a 14 22 9
a 22 14 18
a 15 16 15
a 16 15 4
a 15 23 4
a 23 15 6
a 16 24 9
a 24 16 2
a 17 18 19
a 18 17 13
a 17 25 16
a 25 17 14
a 18 19 6
a 19 18 12
a 18 26 3
a 26 18 1
a 19 20 8
a 20 19 9
a 19 27 14
a 27 19 6
a 20 21 8
a 21 20 18
a 20 28 9
a 28 20 6
a 21 22 5
a 22 21 12
a 21 29 14
a 29 21 16
a 22 23 5
a 23 22 4
a 22 30 13
a 30 22 19
a 23 24 17
a 24 23 17
a 23 31 1
a 31 23 19
a 24 32 15
a 32 24 13
a 25 26 16
a 26 25 5
a 25 33 15
a 33 25 13
a 26 27 10
a 27 26 10
a 26 34 1
a 34 26 11
a 27 28 6
a 28 27 15
a 27 35 11
a 35 27 11
a 28 29 11
a 29 28 14
a 28 36 12
a 36 28 3
a 29 30 9
a 30 29 7
a 29 37 7
a 37 29 15
a 30 31 2
a 31 30 18
a 30 38 16
a 38 30 16
a 31 32 11
a 32 31 9
a 31 39 19
a 39 31 6
a 32 40 5
a 40 32 2
a 33 34 1
a 34 33 5
a 33 41 15
a 41 33 6
a 34 35 5
a 35 34 5
a 34 42 13
a 42 34 4
a 35 36 9
a 36 35 13
a 35 43 10
a 43 35 11
a 36 37 16
a 37 36 12
a 36 44 4
a 44 36 18
a 37 38 7
a 38 37 10
a 37 45 8
a 45 37 16
a 38 39 12
a 39 38 14
a 38 46 17
a 46 38 13
a 39 40 11
a 40 39 17
a 39 47 12
a 47 39 6
a 40 48 10
a 48 40 3
a 41 42 1
a 42 41 13
a 41 49 9
a 49 41 11
a 42 43 13
a 43 42 1
a 42 50 13
a 50 42 2
a 43 44 10
a 44 43 9
a 43 51 11
a 51 43 14
a 44 45 2
a 45 44 6
a 44 52 15
a 52 44 19
a 45 46 2
a 46 45 7
a 45 53 3
a 53 45 7
a 46 47 16
a 47 46 17
a 46 54 15
a 54 46 11
a 47 48 8
a 48 47 8
a 47 55 19
a 55 47 15
a 48 56 2
a 56 48 9
a 49 50 1
a 50 49 4
a 49 57 19
a 57 49 2
a 50 51 1
a 51 50 2
a 50 58 5
a 58 50 5
a 51 52 13
a 52 51 7
a 51 59 2
a 59 51 4
a 52 53 2
a 53 52 13
a 52 60 19
a 60 52 6
a 53 54 19
a 54 53 18
a 53 61 9
a 61 53 6
a 54 55 3
a 55 54 5
a 54 62 9
a 62 54 13
a 55 56 4
a 56 55 1
a 55 63 18
a 63 55 15
a 56 64 2
a 64 56 6
a 57 58 4
a 58 57 5
a 58 59 1
a 59 58 9
a 59 60 11
a 60 59 5
a 60 61 9
a 61 60 11
a 61 62 3
a 62 61 8
a 62 63 11
a 63 62 1
a 63 64 5
a 64 63 10
