p sp 64 224
a 1 2 2
a 2 1 10
a 1 9 7
a 9 1 1
a 2 3 1
a 3 2 9
a 2 10 10
a 10 2 16
a 3 4 8
a 4 3 12
a 3 11 1
a 11 3 15
a 4 5 12
a 5 4 8
a 4 12 2
a 12 4 12
a 5 6 1
a 6 5 2
a 5 13 17
a 13 5 10
a 6 7 4
a 7 6 1
a 6 14 10
a 14 6 2
a 7 8 1
a 8 7 8
a 7 15 17
a 15 7 1
a 8 16 4
a 16 8 3
a 9 10 6
a 10 9 12
a 9 17 9
a 17 9 1
a 10 11 7
a 11 10 14
a 10 18 1
a 18 10 17
a 11 12 16
a 12 11 2
a 11 19 19
a 19 11 5
a 12 13 16
a 13 12 6
a 12 20 18
a 20 12 6
a 13 14 1
a 14 13 13
a 13 21 16
a 21 13 16
a 14 15 1
a 15 14 11
a 14 22 11
a 22 14 10
a 15 16 4
a 16 15 7
a 15 23 3
a 23 15 7
a 16 24 10
a 24 16 3
a 17 18 17
a 18 17 1
a 17 25 1
a 25 17 3
a 18 19 11
a 19 18 1
a 18 26 4
a 26 18 8
a 19 20 16
a 20 19 14
a 19 27 12
a 27 19 7
a 20 21 13
a 21 20 12
a 20 28 19
a 28 20 13
a 21 22 1
a 22 21 18
a 21 29 1
a 29 21 3
a 22 23 12
a 23 22 18
a 22 30 5
a 30 22 4
a 23 24 15
a 24 23 18
a 23 31 18
a 31 23 2
a 24 32 16
a 32 24 8
a 25 26 4
a 26 25 17
a 25 33 4
a 33 25 15
a 26 27 14
a 27 26 7
a 26 34 5
a 34 26 4
a 27 28 1
a 28 27 16
a 27 35 7
a 35 27 16
a 28 29 5
a 29 28 1
a 28 36 10
a 36 28 1
a 29 30 10
a 30 29 17
a 29 37 15
a 37 29 10
a 30 31 12
a 31 30 19
a 30 38 14
a 38 30 7
a 31 32 14
a 32 31 13
a 31 39 6
a 39 31 19
a 32 40 10
a 40 32 5
a 33 34 19
a 34 33 14
a 33 41 9
a 41 33 7
a 34 35 16
a 35 34 1
a 34 42 2
a 42 34 19
a 35 36 15
a 36 35 17
a 35 43 4
a 43 35 11
a 36 37 2
a 37 36 4
a 36 44 17
a 44 36 11
a 37 38 19
a 38 37 1
a 37 45 4
a 45 37 4
a 38 39 18
a 39 38 9
a 38 46 15
a 46 38 7
a 39 40 4
a 40 39 16
a 39 47 6
a 47 39 9
a 40 48 4
a 48 40 19
a 41 42 19
a 42 41 7
a 41 49 15
a 49 41 5
a 42 43 1
a 43 42 6
a 42 50 4
a 50 42 18
a 43 44 10
a 44 43 12
a 43 51 17
a 51 43 3
a 44 45 5
a 45 44 7
a 44 52 10
a 52 44 7
a 45 46 4
a 46 45 7
a 45 53 7
a 53 45 16
a 46 47 12
a 47 46 13
a 46 54 12
a 54 46 4
a 47 48 2
a 48 47 13
a 47 55 17
a 55 47 18
a 48 56 2
a 56 48 10
a 49 50 16
a 50 49 14
a 49 57 18
a 57 49 7
a 50 51 8
a 51 50 6
a 50 58 9
a 58 50 1
a 51 52 5
a 52 51 1
a 51 59 6
a 59 51 5
a 52 53 7
a 53 52 15
a 52 60 10
a 60 52 9
a 53 54 15
a 54 53 15
a 53 61 15
a 61 53 12
a 54 55 6
a 55 54 8
a 54 62 17
a 62 54 18
a 55 56 5
a 56 55 13
a 55 63 8
a 63 55 17
a 56 64 17
a 64 56 1
a 57 58 9
a 58 57 17
a 58 59 5
a 59 58 16
a 59 60 10
a 60 59 10
a 60 61 17
a 61 60 13
a 61 62 12
a 62 61 9
a 62 63 2
a 63 62 14
a 63 64 5
a 64 63 1
