p sp 64 224
a 1 2 13
a 2 1 10
a 1 9 5
a 9 1 10
a 2 3 9
a 3 2 10
a 2 10 1
a 10 2 13
a 3 4 5
a 4 3 18
a 3 11 11
a 11 3 7
a 4 5 14
a 5 4 11
a 4 12 16
a 12 4 2
a 5 6 17
a 6 5 4
a 5 13 9
a 13 5 16
a 6 7 14
a 7 6 5
a 6 14 16
a 14 6 8
a 7 8 16
a 8 7 18
a 7 15 17
a 15 7 8
a 8 16 19
a 16 8 1
a 9 10 14
a 10 9 16
a 9 17 3
a 17 9 18
a 10 11 14
a 11 10 16
a 10 18 13
a 18 10 4
a 11 12 19
a 12 11 8
a 11 19 1
a 19 11 16
a 12 13 2
a 13 12 16
a 12 20 13
a 20 12 6
a 13 14 1
a 14 13 9
a 13 21 1
a 21 13 13
a 14 15 9
a 15 14 17
a 14 22 6
a 22 14 2
a 15 16 1
a 16 15 14
a 15 23 14
a 23 15 7
a 16 24 12
a 24 16 7
a 17 18 8
a 18 17 19
a 17 25 9
a 25 17 19
a 18 19 13
a 19 18 8
a 18 26 19
a 26 18 11
a 19 20 17
a 20 19 7
a 19 27 11
a 27 19 1
a 20 21 5
a 21 20 8
a 20 28 17
a 28 20 6
a 21 22 17
a 22 21 13
a 21 29 17
a 29 21 1
a 22 23 13
a 23 22 9
a 22 30 17
a 30 22 16
a 23 24 1
a 24 23 18
a 23 31 3
a 31 23 7
a 24 32 7
a 32 24 10
a 25 26 11
a 26 25 7
a 25 33 8
a 33 25 12
a 26 27 14
a 27 26 17
a 26 34 4
a 34 26 8
a 27 28 3
a 28 27 13
a 27 35 10
a 35 27 12
a 28 29 6
a 29 28 13
a 28 36 11
a 36 28 14
a 29 30 9
a 30 29 1
a 29 37 17
a 37 29 15
a 30 31 14
a 31 30 16
a 30 38 19
a 38 30 13
a 31 32 4
a 32 31 4
a 31 39 9
a 39 31 14
a 32 40 1
a 40 32 14
a 33 34 7
a 34 33 4
a 33 41 13
a 41 33 9
a 34 35 5
a 35 34 15
a 34 42 8
a 42 34 6
a 35 36 2
a 36 35 9
a 35 43 14
a 43 35 3
a 36 37 3
a 37 36 5
a 36 44 7
a 44 36 12
a 37 38 7
a 38 37 14
a 37 45 8
a 45 37 5
a 38 39 13
a 39 38 2
a 38 46 19
a 46 38 3
a 39 40 6
a 40 39 15
a 39 47 16
a 47 39 8
a 40 48 7
a 48 40 14
a 41 42 12
a 42 41 14
a 41 49 18
a 49 41 14
a 42 43 11
a 43 42 7
a 42 50 18
a 50 42 19
a 43 44 6
a 44 43 5
a 43 51 18
a 51 43 1
a 44 45 3
a 45 44 14
a 44 52 17
a 52 44 3
a 45 46 14
a 46 45 7
a 45 53 7
a 53 45 9
a 46 47 7
a 47 46 15
a 46 54 6
a 54 46 4
a 47 48 14
a 48 47 14
a 47 55 19
a 55 47 9
a 48 56 15
a 56 48 17
a 49 50 3
a 50 49 3
a 49 57 9
a 57 49 18
a 50 51 7
a 51 50 6
a 50 58 2
a 58 50 9
a 51 52 9
a 52 51 1
a 51 59 14
a 59 51 17
a 52 53 14
a 53 52 3
a 52 60 16
a 60 52 5
a 53 54 17
a 54 53 10
a 53 61 13
a 61 53 3
a 54 55 6
a 55 54 13
a 54 62 8
a 62 54 11
a 55 56 2
a 56 55 5
a 55 63 18
a 63 55 1
a 56 64 1
a 64 56 17
a 57 58 8
a 58 57 6
a 58 59 8
a 59 58 1
a 59 60 17
a 60 59 8
a 60 61 17
a 61 60 11
a 61 62 17
a 62 61 3
a 62 63 6
a 63 62 5
a 63 64 1
a 64 63 17
