p sp 64 224
a 1 2 3
a 2 1 5
a 1 9 13
a 9 1 3
a 2 3 18
a 3 2 15
a 2 10 16
a 10 2 16
a 3 4 10
a 4 3 1
a 3 11 12
a 11 3 15
a 4 5 1
a 5 4 13
a 4 12 2
a 12 4 12
a 5 6 13
a 6 5 7
a 5 13 9
a 13 5 5
a 6 7 11
a 7 6 10
a 6 14 17
a 14 6 7
a 7 8 6
a 8 7 2
a 7 15 17
a 15 7 15
a 8 16 19
a 16 8 14
a 9 10 6
a 10 9 5
a 9 17 16
a 17 9 9
a 10 11 14
a 11 10 8
a 10 18 4
a 18 10 11
a 11 12 18
a 12 11 5
a 11 19 5
a 19 11 9
a 12 13 14
a 13 12 12
a 12 20 16
a 20 12 1
a 13 14 10
a 14 13 9
a 13 21 4
a 21 13 17
a 14 15 15
a 15 14 1
a 14 22 1
a 22 14 12
a 15 16 2
a 16 15 6
a 15 23 4
a 23 15 10
a 16 24 7
a 24 16 7
a 17 18 17
a 18 17 11
a 17 25 12
a 25 17 6
a 18 19 9
a 19 18 5
a 18 26 8
a 26 18 8
a 19 20 17
a 20 19 2
a 19 27 4
a 27 19 4
a 20 21 9
a 21 20 1
a 20 28 1
a 28 20 1
a 21 22 2
a 22 21 11
a 21 29 1
a 29 21 15
a 22 23 2
a 23 22 16
a 22 30 17
a 30 22 19
a 23 24 9
a 24 23 6
a 23 31 11
a 31 23 12
a 24 32 15
a 32 24 5
a 25 26 4
a 26 25 5
a 25 33 16
a 33 25 1
a 26 27 3
a 27 26 15
a 26 34 6
a 34 26 17
a 27 28 4
a 28 27 15
a 27 35 15
a 35 27 6
a 28 29 2
a 29 28 3
a 28 36 2
a 36 28 16
a 29 30 10
a 30 29 15
a 29 37 9
a 37 29 14
a 30 31 19
a 31 30 7
a 30 38 19
a 38 30 18
a 31 32 11
a 32 31 14
a 31 39 18
a 39 31 5
a 32 40 7
a 40 32 5
a 33 34 13
a 34 33 11
a 33 41 19
a 41 33 16
a 34 35 15
a 35 34 7
a 34 42 17
a 42 34 1
a 35 36 14
a 36 35 14
a 35 43 9
a 43 35 11
a 36 37 11
a 37 36 5
a 36 44 11
a 44 36 13
a 37 38 19
a 38 37 14
a 37 45 15
a 45 37 12
a 38 39 10
a 39 38 5
a 38 46 1
a 46 38 15
a 39 40 1
a 40 39 15
a 39 47 6
a 47 39 9
a 40 48 2
a 48 40 1
a 41 42 3
a 42 41 9
a 41 49 15
a 49 41 16
a 42 43 15
a 43 42 19
a 42 50 12
a 50 42 5
a 43 44 12
a 44 43 13
a 43 51 1
a 51 43 1
a 44 45 10
a 45 44 1
a 44 52 5
a 52 44 3
a 45 46 17
a 46 45 2
a 45 53 8
a 53 45 2
a 46 47 10
a 47 46 2
a 46 54 16
a 54 46 5
a 47 48 2
a 48 47 3
a 47 55 9
a 55 47 6
a 48 56 14
a 56 48 8
a 49 50 4
a 50 49 4
a 49 57 4
a 57 49 16
a 50 51 14
a 51 50 16
a 50 58 11
a 58 50 19
a 51 52 9
a 52 51 9
a 51 59 1
a 59 51 17
a 52 53 16
a 53 52 19
a 52 60 1
a 60 52 1
a 53 54 9
a 54 53 6
a 53 61 19
a 61 53 17
a 54 55 7
a 55 54 5
a 54 62 2
a 62 54 9
a 55 56 2
a 56 55 3
a 55 63 9
a 63 55 9
a 56 64 2
a 64 56 19
a 57 58 17
a 58 57 18
a 58 59 19
a 59 58 15
a 59 60 19
a 60 59 16
a 60 61 7
a 61 60 15
a 61 62 17
a 62 61 5
a 62 63 2
a 63 62 7
a 63 64 17
a 64 63 15
