p sp 64 224
a 1 2 1
a 2 1 4
a 1 9 2
a 9 1 1
a 2 3 15
a 3 2 6
a 2 10 13
a 10 2 1
a 3 4 17
a 4 3 6
a 3 11 17
a 11 3 5
a 4 5 4
a 5 4 13
a 4 12 2
a 12 4 1
a 5 6 11
a 6 5 2
a 5 13 12
a 13 5 18
a 6 7 14
a 7 6 16
a 6 14 11
a 14 6 6
a 7 8 16
a 8 7 19
a 7 15 4
a 15 7 10
a 8 16 19
a 16 8 11
a 9 10 5
a 10 9 17
a 9 17 19
a 17 9 3
a 10 11 18
a 11 10 10
a 10 18 15
a 18 10 7
a 11 12 1
a 12 11 13
a 11 19 6
a 19 11 15
a 12 13 19
a 13 12 13
a 12 20 11
a 20 12 7
a 13 14 17
a 14 13 3
a 13 21 14
a 21 13 6
a 14 15 3
a 15 14 14
a 14 22 3
a 22 14 5
a 15 16 10
a 16 15 12
a 15 23 1
a 23 15 4
a 16 24 1
a 24 16 4
a 17 18 11
a 18 17 10
a 17 25 5
a 25 17 12
a 18 19 17
a 19 18 6
a 18 26 3
a 26 18 13
a 19 20 3
a 20 19 3
a 19 27 12
a 27 19 2
a 20 21 2
a 21 20 17
a 20 28 4
a 28 20 13
a 21 22 14
a 22 21 2
a 21 29 6
a 29 21 19
a 22 23 1
a 23 22 13
a 22 30 2
a 30 22 3
a 23 24 14
a 24 23 5
a 23 31 13
a 31 23 4
a 24 32 10
a 32 24 7
a 25 26 4
a 26 25 15
a 25 33 14
a 33 25 13
a 26 27 1
a 27 26 18
a 26 34 15
a 34 26 9
a 27 28 16
a 28 27 2
a 27 35 3
a 35 27 8
a 28 29 13
a 29 28 9
a 28 36 10
a 36 28 10
a 29 30 19
a 30 29 4
a 29 37 5
a 37 29 8
a 30 31 10
a 31 30 1
a 30 38 7
a 38 30 12
a 31 32 18
a 32 31 8
a 31 39 19
a 39 31 5
a 32 40 1
a 40 32 3
a 33 34 4
a 34 33 12
a 33 41 5
a 41 33 4
a 34 35 3
a 35 34 17
a 34 42 9
a 42 34 2
a 35 36 10
a 36 35 1
a 35 43 3
a 43 35 8
a 36 37 11
a 37 36 10
a 36 44 12
a 44 36 1
a 37 38 11
a 38 37 1
a 37 45 5
a 45 37 17
a 38 39 4
a 39 38 13
a 38 46 7
a 46 38 1
a 39 40 2
a 40 39 9
a 39 47 6
a 47 39 4
a 40 48 11
a 48 40 11
a 41 42 5
a 42 41 6
a 41 49 11
a 49 41 2
a 42 43 6
a 43 42 4
a 42 50 12
a 50 42 7
a 43 44 17
a 44 43 5
a 43 51 5
a 51 43 19
a 44 45 6
a 45 44 2
a 44 52 15
a 52 44 14
a 45 46 7
a 46 45 8
a 45 53 11
a 53 45 8
a 46 47 14
a 47 46 1
a 46 54 1
a 54 46 19
a 47 48 8
a 48 47 4
a 47 55 17
a 55 47 7
a 48 56 12
a 56 48 17
a 49 50 4
a 50 49 7
a 49 57 10
a 57 49 12
a 50 51 17
a 51 50 9
a 50 58 7
a 58 50 1
a 51 52 1
a 52 51 4
a 51 59 17
a 59 51 16
a 52 53 16
a 53 52 8
a 52 60 17
a 60 52 12
a 53 54 4
a 54 53 11
a 53 61 15
a 61 53 19
a 54 55 16
a 55 54 18
a 54 62 1
a 62 54 14
a 55 56 11
a 56 55 7
a 55 63 17
a 63 55 9
a 56 64 8
a 64 56 14
a 57 58 13
a 58 57 14
a 58 59 15
a 59 58 4
a 59 60 1
a 60 59 10
a 60 61 10
a 61 60 1
a 61 62 9
a 62 61 15
a 62 63 13
a 63 62 1
a 63 64 5
a 64 63 12
