p sp 64 224
a 1 2 12
a 2 1 10
a 1 9 19
a 9 1 2
a 2 3 8
a 3 2 19
a 2 10 17
a 10 2 5
a 3 4 12
a 4 3 18
a 3 11 16
a 11 3 4
a 4 5 14
a 5 4 1
a 4 12 13
a 12 4 10
a 5 6 1
a 6 5 1
a 5 13 11
a 13 5 12
a 6 7 14
a 7 6 16
a 6 14 7
a 14 6 10
a 7 8 6
a 8 7 10
a 7 15 15
a 15 7 12
a 8 16 15
a 16 8 13
a 9 10 12
a 10 9 12
a 9 17 10
a 17 9 14
a 10 11 18
a 11 10 1
a 10 18 17
a 18 10 19
a 11 12 10
a 12 11 11
a 11 19 1
a 19 11 14
a 12 13 17
a 13 12 14
a 12 20 4
a 20 12 6
a 13 14 1
a 14 13 9
a 13 21 7
a 21 13 12
a 14 15 4
a 15 14 16
a 14 22 16
a 22 14 13
a 15 16 1
a 16 15 1
a 15 23 11
a 23 15 2
a 16 24 1
a 24 16 17
a 17 18 11
a 18 17 1
a 17 25 19
a 25 17 2
a 18 19 17
a 19 18 11
a 18 26 2
a 26 18 2
a 19 20 10
a 20 19 19
a 19 27 1
a 27 19 5
a 20 21 1
a 21 20 6
a 20 28 9
a 28 20 2
a 21 22 18
a 22 21 6
a 21 29 1
a 29 21 12
a 22 23 6
a 23 22 8
a 22 30 1
a 30 22 14
a 23 24 11
a 24 23 1
a 23 31 5
a 31 23 16
a 24 32 10
a 32 24 3
a 25 26 5
a 26 25 16
a 25 33 7
a 33 25 13
a 26 27 11
a 27 26 10
a 26 34 13
a 34 26 2
a 27 28 1
a 28 27 6
a 27 35 12
a 35 27 2
a 28 29 14
a 29 28 16
a 28 36 19
a 36 28 1
a 29 30 15
a 30 29 6
a 29 37 6
a 37 29 13
a 30 31 12
a 31 30 5
a 30 38 9
a 38 30 17
a 31 32 4
a 32 31 19
a 31 39 1
a 39 31 10
a 32 40 11
a 40 32 17
a 33 34 7
a 34 33 1
a 33 41 18
a 41 33 18
a 34 35 3
a 35 34 7
a 34 42 8
a 42 34 13
a 35 36 16
a 36 35 4
a 35 43 15
a 43 35 8
a 36 37 14
a 37 36 6
a 36 44 5
a 44 36 7
a 37 38 14
a 38 37 7
a 37 45 5
a 45 37 15
a 38 39 2
a 39 38 8
a 38 46 4
a 46 38 19
a 39 40 2
a 40 39 6
a 39 47 1
a 47 39 17
a 40 48 7
a 48 40 19
a 41 42 6
a 42 41 18
a 41 49 16
a 49 41 4
a 42 43 6
a 43 42 8
a 42 50 6
a 50 42 1
a 43 44 2
a 44 43 10
a 43 51 13
a 51 43 1
a 44 45 8
a 45 44 16
a 44 52 15
a 52 44 2
a 45 46 17
a 46 45 19
a 45 53 11
a 53 45 2
a 46 47 19
a 47 46 3
a 46 54 17
a 54 46 18
a 47 48 16
a 48 47 14
a 47 55 17
a 55 47 14
a 48 56 7
a 56 48 18
a 49 50 15
a 50 49 2
a 49 57 13
a 57 49 11
a 50 51 6
a 51 50 4
a 50 58 13
a 58 50 7
a 51 52 7
a 52 51 13
a 51 59 4
a 59 51 1
a 52 53 11
a 53 52 6
a 52 60 5
a 60 52 4
a 53 54 3
a 54 53 1
a 53 61 14
a 61 53 12
a 54 55 16
a 55 54 3
a 54 62 10
a 62 54 15
a 55 56 6
a 56 55 9
a 55 63 5
a 63 55 12
a 56 64 2
a 64 56 16
a 57 58 8
a 58 57 13
a 58 59 1
a 59 58 11
a 59 60 3
a 60 59 7
a 60 61 15
a 61 60 18
a 61 62 15
a 62 61 11
a 62 63 3
a 63 62 6
a 63 64 3
a 64 63 11
