p sp 49 168
a 1 2 2
a 2 1 13
a 1 8 5
a 8 1 14
a 2 3 15
a 3 2 10
a 2 9 10
a 9 2 19
a 3 4 20
a 4 3 6
a 3 10 18
a 10 3 1
a 4 5 8
a 5 4 8
a 4 11 13
a 11 4 1
a 5 6 4
a 6 5 14
a 5 12 1
a 12 5 14
a 6 7 12
a 7 6 10
a 6 13 11
a 13 6 2
a 7 14 10
a 14 7 17
a 8 9 12
a 9 8 8
a 8 15 3
a 15 8 19
a 9 10 18
a 10 9 13
a 9 16 8
a 16 9 16
a 10 11 12
a 11 10 7
a 10 17 9
a 17 10 4
a 11 12 2
a 12 11 11
a 11 18 12
a 18 11 2
a 12 13 16
a 13 12 12
a 12 19 10
a 19 12 9
a 13 14 20
a 14 13 17
a 13 20 8
a 20 13 18
a 14 21 14
a 21 14 17
a 15 16 8
a 16 15 1
a 15 22 14
a 22 15 7
a 16 17 14
a 17 16 13
a 16 23 4
a 23 16 1
a 17 18 13
a 18 17 3
a 17 24 5
a 24 17 5
a 18 19 2
a 19 18 12
a 18 25 5
a 25 18 8
a 19 20 10
a 20 19 9
a 19 26 2
a 26 19 17
a 20 21 11
a 21 20 3
a 20 27 18
a 27 20 6
a 21 28 4
a 28 21 12
a 22 23 17
a 23 22 10
a 22 29 4
a 29 22 1
a 23 24 3
a 24 23 10
a 23 30 19
a 30 23 18
a 24 25 14
a 25 24 6
a 24 31 7
a 31 24 7
a 25 26 7
a 26 25 16
a 25 32 4
a 32 25 10
a 26 27 6
a 27 26 20
a 26 33 8
a 33 26 12
a 27 28 6
a 28 27 12
a 27 34 19
a 34 27 8
a 28 35 9
a 35 28 17
a 29 30 13
a 30 29 17
a 29 36 15
a 36 29 2
a 30 31 1
a 31 30 18
a 30 37 6
a 37 30 12
a 31 32 12
a 32 31 1
a 31 38 3
a 38 31 16
a 32 33 4
a 33 32 7
a 32 39 2
a 39 32 13
a 33 34 6
a 34 33 2
a 33 40 20
a 40 33 16
a 34 35 8
a 35 34 16
a 34 41 13
a 41 34 19
a 35 42 14
a 42 35 10
a 36 37 13
a 37 36 12
a 36 43 6
a 43 36 10
a 37 38 20
a 38 37 6
a 37 44 7
a 44 37 18
a 38 39 5
a 39 38 12
a 38 45 14
a 45 38 10
a 39 40 17
a 40 39 6
a 39 46 20
a 46 39 9
a 40 41 3
a 41 40 15
a 40 47 4
a 47 40 15
a 41 42 12
a 42 41 17
a 41 48 15
a 48 41 7
a 42 49 13
a 49 42 14
a 43 44 5
a 44 43 15
a 44 45 5
a 45 44 17
a 45 46 2
a 46 45 3
a 46 47 14
a 47 46 2
a 47 48 17
a 48 47 7
a 48 49 17
a 49 48 13
