p sp 49 168
a 1 2 10
a 2 1 18
a 1 8 12
a 8 1 1
a 2 3 1
a 3 2 14
a 2 9 10
a 9 2 6
a 3 4 13
a 4 3 1
a 3 10 9
a 10 3 7
a 4 5 13
a 5 4 20
a 4 11 14
a 11 4 10
a 5 6 24
a 6 5 1
a 5 12 13
a 12 5 9
a 6 7 4
a 7 6 1
a 6 13 18
a 13 6 4
a 7 14 14
a 14 7 16
a 8 9 4
a 9 8 5
a 8 15 7
a 15 8 2
a 9 10 16
a 10 9 1
a 9 16 19
a 16 9 7
a 10 11 13
a 11 10 4
a 10 17 3
a 17 10 9
a 11 12 24
a 12 11 5
a 11 18 4
a 18 11 6
a 12 13 17
a 13 12 4
a 12 19 21
a 19 12 9
a 13 14 1
a 14 13 1
a 13 20 9
a 20 13 16
a 14 21 13
a 21 14 8
a 15 16 1
a 16 15 17
a 15 22 6
a 22 15 19
a 16 17 4
a 17 16 1
a 16 23 3
a 23 16 19
a 17 18 1
a 18 17 7
a 17 24 1
a 24 17 7
a 18 19 4
a 19 18 14
a 18 25 1
a 25 18 1
a 19 20 5
a 20 19 14
a 19 26 25
a 26 19 1
a 20 21 15
a 21 20 7
a 20 27 16
a 27 20 5
a 21 28 9
a 28 21 1
a 22 23 16
a 23 22 15
a 22 29 17
a 29 22 17
a 23 24 5
a 24 23 1
a 23 30 1
a 30 23 6
a 24 25 2
a 25 24 1
a 24 31 13
a 31 24 1
a 25 26 1
a 26 25 20
a 25 32 1
a 32 25 11
a 26 27 21
a 27 26 1
a 26 33 20
a 33 26 7
a 27 28 1
a 28 27 13
a 27 34 9
a 34 27 19
a 28 35 10
a 35 28 1
a 29 30 1
a 30 29 1
a 29 36 3
a 36 29 17
a 30 31 3
a 31 30 16
a 30 37 3
a 37 30 1
a 31 32 3
a 32 31 26
a 31 38 7
a 38 31 1
a 32 33 6
a 33 32 1
a 32 39 17
a 39 32 8
a 33 34 1
a 34 33 7
a 33 40 13
a 40 33 1
a 34 35 9
a 35 34 13
a 34 41 14
a 41 34 18
a 35 42 16
a 42 35 3
a 36 37 18
a 37 36 20
a 36 43 17
a 43 36 4
a 37 38 11
a 38 37 11
a 37 44 1
a 44 37 15
a 38 39 7
a 39 38 11
a 38 45 20
a 45 38 15
a 39 40 1
a 40 39 1
a 39 46 10
a 46 39 6
a 40 41 17
a 41 40 8
a 40 47 17
a 47 40 13
a 41 42 1
a 42 41 1
a 41 48 10
a 48 41 16
a 42 49 1
a 49 42 1
a 43 44 24
a 44 43 8
a 44 45 9
a 45 44 1
a 45 46 15
a 46 45 8
a 46 47 5
a 47 46 8
a 47 48 14
a 48 47 6
a 48 49 14
a 49 48 3
