p sp 49 168
a 1 2 1
a 2 1 18
a 1 8 21
a 8 1 20
a 2 3 1
a 3 2 21
a 2 9 18
a 9 2 1
a 3 4 14
a 4 3 18
a 3 10 1
a 10 3 24
a 4 5 20
a 5 4 17
a 4 11 1
a 11 4 14
a 5 6 1
a 6 5 18
a 5 12 10
a 12 5 1
a 6 7 1
a 7 6 8
a 6 13 1
a 13 6 18
a 7 14 1
a 14 7 1
a 8 9 20
a 9 8 10
a 8 15 21
a 15 8 1
a 9 10 1
a 10 9 5
a 9 16 2
a 16 9 18
a 10 11 9
a 11 10 13
a 10 17 20
a 17 10 20
a 11 12 15
a 12 11 15
a 11 18 14
a 18 11 3
a 12 13 1
a 13 12 21
a 12 19 1
a 19 12 3
a 13 14 13
a 14 13 15
a 13 20 19
a 20 13 3
a 14 21 1
a 21 14 1
a 15 16 6
a 16 15 13
a 15 22 1
a 22 15 1
a 16 17 16
a 17 16 15
a 16 23 2
a 23 16 22
a 17 18 1
a 18 17 15
a 17 24 5
a 24 17 17
a 18 19 3
a 19 18 3
a 18 25 1
a 25 18 1
a 19 20 1
a 20 19 20
a 19 26 11
a 26 19 5
a 20 21 1
a 21 20 7
a 20 27 1
a 27 20 12
a 21 28 2
a 28 21 6
a 22 23 1
a 23 22 5
a 22 29 15
a 29 22 7
a 23 24 22
a 24 23 1
a 23 30 16
a 30 23 1
a 24 25 15
a 25 24 21
a 24 31 22
a 31 24 16
a 25 26 2
a 26 25 10
a 25 32 1
a 32 25 18
a 26 27 20
a 27 26 14
a 26 33 17
a 33 26 18
a 27 28 12
a 28 27 2
a 27 34 1
a 34 27 17
a 28 35 17
a 35 28 8
a 29 30 18
a 30 29 14
a 29 36 1
a 36 29 17
a 30 31 1
a 31 30 13
a 30 37 17
a 37 30 6
a 31 32 1
a 32 31 20
a 31 38 5
a 38 31 10
a 32 33 9
a 33 32 1
a 32 39 1
a 39 32 10
a 33 34 1
a 34 33 11
a 33 40 7
a 40 33 1
a 34 35 3
a 35 34 13
a 34 41 1
a 41 34 14
a 35 42 13
a 42 35 18
a 36 37 1
a 37 36 1
a 36 43 8
a 43 36 21
a 37 38 1
a 38 37 1
a 37 44 4
a 44 37 1
a 38 39 10
a 39 38 1
a 38 45 1
a 45 38 18
a 39 40 2
a 40 39 18
a 39 46 1
a 46 39 1
a 40 41 21
a 41 40 16
a 40 47 1
a 47 40 6
a 41 42 4
a 42 41 1
a 41 48 1
a 48 41 2
a 42 49 5
a 49 42 4
a 43 44 13
a 44 43 13
a 44 45 5
a 45 44 1
a 45 46 24
a 46 45 18
a 46 47 13
a 47 46 4
a 47 48 1
a 48 47 1
a 48 49 16
a 49 48 17
