p sp 49 168
a 1 2 10
a 2 1 8
a 1 8 7
a 8 1 1
a 2 3 1
a 3 2 7
a 2 9 4
a 9 2 14
a 3 4 7
a 4 3 4
a 3 10 9
a 10 3 14
a 4 5 1
a 5 4 2
a 4 11 1
a 11 4 17
a 5 6 13
a 6 5 1
a 5 12 1
a 12 5 12
a 6 7 17
a 7 6 11
a 6 13 20
a 13 6 14
a 7 14 18
a 14 7 15
a 8 9 1
a 9 8 13
a 8 15 1
a 15 8 6
a 9 10 1
a 10 9 15
a 9 16 1
a 16 9 1
a 10 11 3
a 11 10 15
a 10 17 11
a 17 10 12
a 11 12 3
a 12 11 15
a 11 18 20
a 18 11 17
a 12 13 17
a 13 12 14
a 12 19 12
a 19 12 11
a 13 14 1
a 14 13 5
a 13 20 1
a 20 13 15
a 14 21 19
a 21 14 1
a 15 16 1
a 16 15 1
a 15 22 1
a 22 15 2
a 16 17 11
a 17 16 7
a 16 23 13
a 23 16 12
a 17 18 1
a 18 17 17
a 17 24 12
a 24 17 6
a 18 19 1
a 19 18 4
a 18 25 12
a 25 18 1
a 19 20 1
a 20 19 11
a 19 26 13
a 26 19 9
a 20 21 19
a 21 20 17
a 20 27 1
a 27 20 1
a 21 28 13
a 28 21 1
a 22 23 1
a 23 22 1
a 22 29 5
a 29 22 1
a 23 24 17
a 24 23 21
a 23 30 4
a 30 23 5
a 24 25 12
a 25 24 1
a 24 31 20
a 31 24 20
a 25 26 1
a 26 25 1
a 25 32 3
a 32 25 7
a 26 27 1
a 27 26 18
a 26 33 12
a 33 26 20
a 27 28 22
a 28 27 21
a 27 34 1
a 34 27 10
a 28 35 6
a 35 28 1
a 29 30 17
a 30 29 4
a 29 36 15
a 36 29 13
a 30 31 14
a 31 30 6
a 30 37 18
a 37 30 18
a 31 32 18
a 32 31 17
a 31 38 8
a 38 31 8
a 32 33 2
a 33 32 16
a 32 39 11
a 39 32 1
a 33 34 14
a 34 33 11
a 33 40 15
a 40 33 3
a 34 35 16
a 35 34 11
a 34 41 8
a 41 34 2
a 35 42 5
a 42 35 14
a 36 37 14
a 37 36 7
a 36 43 7
a 43 36 1
a 37 38 1
a 38 37 7
a 37 44 15
a 44 37 2
a 38 39 17
a 39 38 16
a 38 45 1
a 45 38 21
a 39 40 1
a 40 39 7
a 39 46 3
a 46 39 4
a 40 41 19
a 41 40 12
a 40 47 9
a 47 40 15
a 41 42 6
a 42 41 8
a 41 48 3
a 48 41 6
a 42 49 10
a 49 42 4
a 43 44 24
a 44 43 3
a 44 45 5
a 45 44 9
a 45 46 10
a 46 45 1
a 46 47 15
a 47 46 17
a 47 48 19
a 48 47 1
a 48 49 5
a 49 48 3
