p sp 49 168
a 1 2 3
a 2 1 1
a 1 8 5
a 8 1 1
a 2 3 1
a 3 2 17
a 2 9 22
a 9 2 10
a 3 4 14
a 4 3 11
a 3 10 18
a 10 3 1
a 4 5 9
a 5 4 20
a 4 11 14
a 11 4 17
a 5 6 1
a 6 5 18
a 5 12 23
a 12 5 1
a 6 7 11
a 7 6 1
a 6 13 12
a 13 6 18
a 7 14 10
a 14 7 1
a 8 9 6
a 9 8 1
a 8 15 7
a 15 8 1
a 9 10 13
a 10 9 8
a 9 16 23
a 16 9 8
a 10 11 14
a 11 10 13
a 10 17 1
a 17 10 1
a 11 12 18
a 12 11 20
a 11 18 6
a 18 11 20
a 12 13 1
a 13 12 17
a 12 19 5
a 19 12 14
a 13 14 1
a 14 13 14
a 13 20 16
a 20 13 1
a 14 21 12
a 21 14 1
a 15 16 13
a 16 15 1
a 15 22 6
a 22 15 16
a 16 17 18
a 17 16 1
a 16 23 22
a 23 16 14
a 17 18 20
a 18 17 4
a 17 24 1
a 24 17 14
a 18 19 4
a 19 18 13
a 18 25 14
a 25 18 1
a 19 20 22
a 20 19 1
a 19 26 1
a 26 19 1
a 20 21 3
a 21 20 19
a 20 27 3
a 27 20 3
a 21 28 1
a 28 21 21
a 22 23 7
a 23 22 1
a 22 29 3
a 29 22 17
a 23 24 5
a 24 23 12
a 23 30 4
a 30 23 5
a 24 25 1
a 25 24 17
a 24 31 12
a 31 24 9
a 25 26 1
a 26 25 10
a 25 32 3
a 32 25 8
a 26 27 1
a 27 26 1
a 26 33 9
a 33 26 9
a 27 28 1
a 28 27 1
a 27 34 13
a 34 27 23
a 28 35 1
a 35 28 1
a 29 30 1
a 30 29 8
a 29 36 10
a 36 29 18
a 30 31 13
a 31 30 2
a 30 37 15
a 37 30 7
a 31 32 1
a 32 31 16
a 31 38 12
a 38 31 15
a 32 33 13
a 33 32 15
a 32 39 21
a 39 32 8
a 33 34 20
a 34 33 4
a 33 40 1
a 40 33 14
a 34 35 17
a 35 34 6
a 34 41 11
a 41 34 1
a 35 42 20
a 42 35 1
a 36 37 1
a 37 36 13
a 36 43 24
a 43 36 8
a 37 38 6
a 38 37 1
a 37 44 4
a 44 37 1
a 38 39 3
a 39 38 7
a 38 45 2
a 45 38 4
a 39 40 1
a 40 39 21
a 39 46 15
a 46 39 4
a 40 41 1
a 41 40 17
a 40 47 12
a 47 40 15
a 41 42 6
a 42 41 8
a 41 48 1
a 48 41 15
a 42 49 11
a 49 42 20
a 43 44 12
a 44 43 1
a 44 45 5
a 45 44 16
a 45 46 13
a 46 45 14
a 46 47 20
a 47 46 8
a 47 48 8
a 48 47 19
a 48 49 1
a 49 48 3
