p sp 49 168
a 1 2 1
a 2 1 1
a 1 8 1
a 8 1 8
a 2 3 1
a 3 2 1
a 2 9 18
a 9 2 16
a 3 4 1
a 4 3 11
a 3 10 6
a 10 3 14
a 4 5 17
a 5 4 16
a 4 11 3
a 11 4 1
a 5 6 1
a 6 5 11
a 5 12 13
a 12 5 1
a 6 7 18
a 7 6 19
a 6 13 13
a 13 6 18
a 7 14 18
a 14 7 16
a 8 9 17
a 9 8 19
a 8 15 10
a 15 8 6
a 9 10 13
a 10 9 11
a 9 16 23
a 16 9 13
a 10 11 9
a 11 10 19
a 10 17 9
a 17 10 15
a 11 12 24
a 12 11 20
a 11 18 9
a 18 11 4
a 12 13 7
a 13 12 21
a 12 19 1
a 19 12 1
a 13 14 3
a 14 13 12
a 13 20 23
a 20 13 9
a 14 21 12
a 21 14 1
a 15 16 1
a 16 15 9
a 15 22 8
a 22 15 6
a 16 17 2
a 17 16 15
a 16 23 24
a 23 16 7
a 17 18 8
a 18 17 19
a 17 24 2
a 24 17 1
a 18 19 1
a 19 18 9
a 18 25 13
a 25 18 6
a 19 20 19
a 20 19 14
a 19 26 14
a 26 19 19
a 20 21 12
a 21 20 11
a 20 27 1
a 27 20 24
a 21 28 9
a 28 21 6
a 22 23 5
a 23 22 22
a 22 29 15
a 29 22 5
a 23 24 15
a 24 23 7
a 23 30 18
a 30 23 1
a 24 25 1
a 25 24 22
a 24 31 1
a 31 24 1
a 25 26 15
a 26 25 11
a 25 32 23
a 32 25 14
a 26 27 22
a 27 26 11
a 26 33 16
a 33 26 3
a 27 28 18
a 28 27 4
a 27 34 14
a 34 27 15
a 28 35 1
a 35 28 1
a 29 30 15
a 30 29 15
a 29 36 8
a 36 29 18
a 30 31 9
a 31 30 1
a 30 37 1
a 37 30 1
a 31 32 17
a 32 31 20
a 31 38 17
a 38 31 10
a 32 33 5
a 33 32 16
a 32 39 15
a 39 32 21
a 33 34 11
a 34 33 13
a 33 40 18
a 40 33 17
a 34 35 10
a 35 34 1
a 34 41 20
a 41 34 1
a 35 42 4
a 42 35 21
a 36 37 1
a 37 36 1
a 36 43 5
a 43 36 4
a 37 38 18
a 38 37 12
a 37 44 1
a 44 37 11
a 38 39 23
a 39 38 13
a 38 45 4
a 45 38 3
a 39 40 5
a 40 39 7
a 39 46 4
a 46 39 1
a 40 41 5
a 41 40 6
a 40 47 3
a 47 40 9
a 41 42 20
a 42 41 12
a 41 48 8
a 48 41 12
a 42 49 18
a 49 42 4
a 43 44 1
a 44 43 5
a 44 45 7
a 45 44 14
a 45 46 4
a 46 45 5
a 46 47 1
a 47 46 3
a 47 48 1
a 48 47 20
a 48 49 7
a 49 48 1
