p sp 64 224
a 1 2 2
a 2 1 2
a 1 9 2
a 9 1 8
a 2 3 13
a 3 2 2
a 2 10 14
a 10 2 10
a 3 4 17
a 4 3 14
a 3 11 12
a 11 3 9
a 4 5 3
a 5 4 7
a 4 12 8
a 12 4 16
a 5 6 18
a 6 5 5
a 5 13 9
a 13 5 3
a 6 7 1
a 7 6 1
a 6 14 11
a 14 6 3
a 7 8 17
a 8 7 13
a 7 15 4
a 15 7 5
a 8 16 10
a 16 8 17
a 9 10 4
a 10 9 3
a 9 17 9
a 17 9 17
a 10 11 8
a 11 10 18
a 10 18 16
a 18 10 11
a 11 12 1
a 12 11 4
a 11 19 11
a 19 11 6
a 12 13 9
a 13 12 10
a 12 20 2
a 20 12 4
a 13 14 9
a 14 13 15
a 13 21 6
a 21 13 16
a 14 15 11
a 15 14 17
a 14 22 13
a 22 14 14
a 15 16 16
a 16 15 6
a 15 23 8
a 23 15 20
a 16 24 3
a 24 16 19
a 17 18 16
a 18 17 8
a 17 25 14
a 25 17 14
a 18 19 11
a 19 18 15
a 18 26 13
a 26 18 2
a 19 20 4
a 20 19 15
a 19 27 13
a 27 19 11
a 20 21 5
a 21 20 11
a 20 28 14
a 28 20 4
a 21 22 15
a 22 21 5
a 21 29 12
a 29 21 4
a 22 23 1
a 23 22 12
a 22 30 10
a 30 22 1
a 23 24 11
a 24 23 13
a 23 31 16
a 31 23 1
a 24 32 6
a 32 24 4
a 25 26 5
a 26 25 17
a 25 33 10
a 33 25 4
a 26 27 6
a 27 26 8
a 26 34 18
a 34 26 3
a 27 28 19
a 28 27 20
a 27 35 10
a 35 27 14
a 28 29 8
a 29 28 19
a 28 36 3
a 36 28 7
a 29 30 14
a 30 29 13
a 29 37 5
a 37 29 14
a 30 31 17
a 31 30 5
a 30 38 8
a 38 30 15
a 31 32 11
a 32 31 19
a 31 39 4
a 39 31 5
a 32 40 17
a 40 32 9
a 33 34 2
a 34 33 5
a 33 41 17
a 41 33 5
a 34 35 3
a 35 34 14
a 34 42 1
a 42 34 8
a 35 36 8
a 36 35 16
a 35 43 12
a 43 35 2
a 36 37 20
a 37 36 3
a 36 44 14
a 44 36 17
a 37 38 4
a 38 37 14
a 37 45 2
a 45 37 11
a 38 39 6
a 39 38 11
a 38 46 5
a 46 38 18
a 39 40 11
a 40 39 6
a 39 47 15
a 47 39 13
a 40 48 19
a 48 40 2
a 41 42 9
a 42 41 8
a 41 49 3
a 49 41 19
a 42 43 6
a 43 42 7
a 42 50 10
a 50 42 6
a 43 44 4
a 44 43 6
a 43 51 17
a 51 43 5
a 44 45 19
a 45 44 10
a 44 52 5
a 52 44 5
a 45 46 8
a 46 45 1
a 45 53 20
a 53 45 10
a 46 47 7
a 47 46 16
a 46 54 3
a 54 46 1
a 47 48 15
a 48 47 12
a 47 55 19
a 55 47 12
a 48 56 8
a 56 48 18
a 49 50 9
a 50 49 1
a 49 57 5
a 57 49 1
a 50 51 1
a 51 50 6
a 50 58 9
a 58 50 19
a 51 52 8
a 52 51 14
a 51 59 2
a 59 51 8
a 52 53 20
a 53 52 3
a 52 60 18
a 60 52 7
a 53 54 17
a 54 53 5
a 53 61 5
a 61 53 20
a 54 55 19
a 55 54 6
a 54 62 19
a 62 54 16
a 55 56 19
a 56 55 3
a 55 63 13
a 63 55 7
a 56 64 8
a 64 56 13
a 57 58 8
a 58 57 11
a 58 59 18
a 59 58 6
a 59 60 19
a 60 59 4
a 60 61 13
a 61 60 7
a 61 62 1
a 62 61 11
a 62 63 19
a 63 62 15
a 63 64 19
a 64 63 8
