p sp 64 224
a 1 2 9
a 2 1 13
a 1 9 5
a 9 1 4
a 2 3 1
a 3 2 2
a 2 10 18
a 10 2 10
a 3 4 18
a 4 3 17
a 3 11 16
a 11 3 4
a 4 5 16
a 5 4 20
a 4 12 12
a 12 4 5
a 5 6 13
a 6 5 15
a 5 13 13
a 13 5 18
a 6 7 20
a 7 6 11
a 6 14 13
a 14 6 4
a 7 8 10
a 8 7 10
a 7 15 5
a 15 7 15
a 8 16 13
a 16 8 15
a 9 10 19
a 10 9 9
a 9 17 12
a 17 9 3
a 10 11 1
a 11 10 16
a 10 18 11
a 18 10 12
a 11 12 22
a 12 11 1
a 11 19 11
a 19 11 13
a 12 13 4
a 13 12 1
a 12 20 13
a 20 12 16
a 13 14 15
a 14 13 16
a 13 21 2
a 21 13 17
a 14 15 11
a 15 14 19
a 14 22 5
a 22 14 10
a 15 16 2
a 16 15 18
a 15 23 9
a 23 15 16
a 16 24 13
a 24 16 11
a 17 18 1
a 18 17 5
a 17 25 9
a 25 17 7
a 18 19 4
a 19 18 5
a 18 26 17
a 26 18 10
a 19 20 16
a 20 19 16
a 19 27 1
a 27 19 1
a 20 21 17
a 21 20 1
a 20 28 4
a 28 20 16
a 21 22 4
a 22 21 1
a 21 29 6
a 29 21 7
a 22 23 22
a 23 22 10
a 22 30 11
a 30 22 10
a 23 24 14
a 24 23 1
a 23 31 7
a 31 23 9
a 24 32 2
a 32 24 1
a 25 26 8
a 26 25 17
a 25 33 8
a 33 25 22
a 26 27 3
a 27 26 1
a 26 34 6
a 34 26 1
a 27 28 1
a 28 27 16
a 27 35 5
a 35 27 1
a 28 29 1
a 29 28 11
a 28 36 16
a 36 28 1
a 29 30 15
a 30 29 13
a 29 37 3
a 37 29 6
a 30 31 17
a 31 30 18
a 30 38 18
a 38 30 10
a 31 32 4
a 32 31 1
a 31 39 22
a 39 31 18
a 32 40 14
a 40 32 10
a 33 34 18
a 34 33 5
a 33 41 2
a 41 33 8
a 34 35 15
a 35 34 12
a 34 42 3
a 42 34 18
a 35 36 1
a 36 35 12
a 35 43 18
a 43 35 3
a 36 37 14
a 37 36 6
a 36 44 15
a 44 36 10
a 37 38 12
a 38 37 14
a 37 45 3
a 45 37 11
a 38 39 2
a 39 38 1
a 38 46 11
a 46 38 1
a 39 40 6
a 40 39 5
a 39 47 13
a 47 39 14
a 40 48 17
a 48 40 5
a 41 42 21
a 42 41 14
a 41 49 12
a 49 41 1
a 42 43 15
a 43 42 9
a 42 50 5
a 50 42 10
a 43 44 7
a 44 43 15
a 43 51 1
a 51 43 7
a 44 45 9
a 45 44 13
a 44 52 6
a 52 44 20
a 45 46 16
a 46 45 17
a 45 53 11
a 53 45 7
a 46 47 1
a 47 46 1
a 46 54 15
a 54 46 4
a 47 48 7
a 48 47 1
a 47 55 15
a 55 47 14
a 48 56 4
a 56 48 4
a 49 50 19
a 50 49 8
a 49 57 21
a 57 49 16
a 50 51 9
a 51 50 4
a 50 58 12
a 58 50 11
a 51 52 15
a 52 51 6
a 51 59 1
a 59 51 1
a 52 53 9
a 53 52 1
a 52 60 14
a 60 52 17
a 53 54 3
a 54 53 19
a 53 61 1
a 61 53 12
a 54 55 1
a 55 54 5
a 54 62 6
a 62 54 18
a 55 56 9
a 56 55 4
a 55 63 15
a 63 55 7
a 56 64 14
a 64 56 4
a 57 58 4
a 58 57 4
a 58 59 7
a 59 58 10
a 59 60 1
a 60 59 1
a 60 61 1
a 61 60 8
a 61 62 1
a 62 61 18
a 62 63 19
a 63 62 1
a 63 64 16
a 64 63 6
