p sp 64 224
a 1 2 2
a 2 1 20
a 1 9 4
a 9 1 1
a 2 3 1
a 3 2 4
a 2 10 15
a 10 2 17
a 3 4 8
a 4 3 20
a 3 11 1
a 11 3 10
a 4 5 13
a 5 4 1
a 4 12 18
a 12 4 17
a 5 6 10
a 6 5 6
a 5 13 13
a 13 5 12
a 6 7 14
a 7 6 9
a 6 14 11
a 14 6 12
a 7 8 17
a 8 7 2
a 7 15 20
a 15 7 1
a 8 16 1
a 16 8 17
a 9 10 12
a 10 9 18
a 9 17 1
a 17 9 1
a 10 11 21
a 11 10 1
a 10 18 1
a 18 10 6
a 11 12 22
a 12 11 12
a 11 19 4
a 19 11 1
a 12 13 18
a 13 12 7
a 12 20 1
a 20 12 20
a 13 14 19
a 14 13 18
a 13 21 1
a 21 13 1
a 14 15 6
a 15 14 7
a 14 22 1
a 22 14 12
a 15 16 3
a 16 15 5
a 15 23 17
a 23 15 16
a 16 24 15
a 24 16 11
a 17 18 3
a 18 17 1
a 17 25 17
a 25 17 3
a 18 19 17
a 19 18 12
a 18 26 4
a 26 18 4
a 19 20 12
a 20 19 10
a 19 27 1
a 27 19 4
a 20 21 3
a 21 20 1
a 20 28 11
a 28 20 1
a 21 22 5
a 22 21 1
a 21 29 1
a 29 21 9
a 22 23 20
a 23 22 2
a 22 30 10
a 30 22 2
a 23 24 1
a 24 23 4
a 23 31 17
a 31 23 1
a 24 32 3
a 32 24 12
a 25 26 14
a 26 25 1
a 25 33 14
a 33 25 2
a 26 27 13
a 27 26 14
a 26 34 12
a 34 26 2
a 27 28 16
a 28 27 8
a 27 35 13
a 35 27 1
a 28 29 15
a 29 28 16
a 28 36 1
a 36 28 3
a 29 30 20
a 30 29 1
a 29 37 20
a 37 29 7
a 30 31 1
a 31 30 21
a 30 38 16
a 38 30 7
a 31 32 3
a 32 31 14
a 31 39 1
a 39 31 2
a 32 40 8
a 40 32 16
a 33 34 4
a 34 33 13
a 33 41 14
a 41 33 12
a 34 35 17
a 35 34 1
a 34 42 1
a 42 34 18
a 35 36 4
a 36 35 1
a 35 43 8
a 43 35 20
a 36 37 15
a 37 36 5
a 36 44 1
a 44 36 1
a 37 38 5
a 38 37 12
a 37 45 10
a 45 37 11
a 38 39 1
a 39 38 4
a 38 46 21
a 46 38 19
a 39 40 15
a 40 39 15
a 39 47 6
a 47 39 1
a 40 48 19
a 48 40 15
a 41 42 6
a 42 41 1
a 41 49 16
a 49 41 1
a 42 43 8
a 43 42 5
a 42 50 20
a 50 42 21
a 43 44 1
a 44 43 14
a 43 51 19
a 51 43 9
a 44 45 10
a 45 44 13
a 44 52 7
a 52 44 6
a 45 46 1
a 46 45 14
a 45 53 1
a 53 45 6
a 46 47 1
a 47 46 2
a 46 54 19
a 54 46 9
a 47 48 1
a 48 47 6
a 47 55 1
a 55 47 14
a 48 56 10
a 56 48 12
a 49 50 11
a 50 49 17
a 49 57 12
a 57 49 11
a 50 51 4
a 51 50 7
a 50 58 18
a 58 50 5
a 51 52 9
a 52 51 14
a 51 59 8
a 59 51 17
a 52 53 1
a 53 52 18
a 52 60 7
a 60 52 21
a 53 54 7
a 54 53 13
a 53 61 12
a 61 53 1
a 54 55 19
a 55 54 9
a 54 62 3
a 62 54 6
a 55 56 2
a 56 55 4
a 55 63 4
a 63 55 4
a 56 64 3
a 64 56 1
a 57 58 6
a 58 57 12
a 58 59 10
a 59 58 7
a 59 60 2
a 60 59 17
a 60 61 3
a 61 60 7
a 61 62 2
a 62 61 2
a 62 63 4
a 63 62 10
a 63 64 4
a 64 63 4
