p sp 64 224
a 1 2 15
a 2 1 20
a 1 9 11
a 9 1 14
a 2 3 9
a 3 2 4
a 2 10 6
a 10 2 16
a 3 4 1
a 4 3 15
a 3 11 3
a 11 3 10
a 4 5 20
a 5 4 11
a 4 12 17
a 12 4 14
a 5 6 13
a 6 5 1
a 5 13 1
a 13 5 1
a 6 7 2
a 7 6 17
a 6 14 1
a 14 6 7
a 7 8 7
a 8 7 17
a 7 15 13
a 15 7 12
a 8 16 4
a 16 8 1
a 9 10 7
a 10 9 7
a 9 17 17
a 17 9 3
a 10 11 10
a 11 10 16
a 10 18 6
a 18 10 17
a 11 12 17
a 12 11 16
a 11 19 14
a 19 11 14
a 12 13 12
a 13 12 17
a 12 20 21
a 20 12 11
a 13 14 19
a 14 13 6
a 13 21 14
a 21 13 14
a 14 15 20
a 15 14 18
a 14 22 7
a 22 14 1
a 15 16 1
a 16 15 9
a 15 23 1
a 23 15 5
a 16 24 16
a 24 16 15
a 17 18 3
a 18 17 12
a 17 25 1
a 25 17 7
a 18 19 1
a 19 18 5
a 18 26 11
a 26 18 17
a 19 20 19
a 20 19 7
a 19 27 16
a 27 19 12
a 20 21 1
a 21 20 2
a 20 28 1
a 28 20 4
a 21 22 5
a 22 21 9
a 21 29 1
a 29 21 7
a 22 23 9
a 23 22 13
a 22 30 1
a 30 22 14
a 23 24 20
a 24 23 4
a 23 31 17
a 31 23 5
a 24 32 21
a 32 24 1
a 25 26 1
a 26 25 17
a 25 33 6
a 33 25 16
a 26 27 1
a 27 26 3
a 26 34 2
a 34 26 20
a 27 28 3
a 28 27 1
a 27 35 5
a 35 27 3
a 28 29 19
a 29 28 9
a 28 36 19
a 36 28 17
a 29 30 11
a 30 29 1
a 29 37 9
a 37 29 12
a 30 31 1
a 31 30 21
a 30 38 1
a 38 30 17
a 31 32 1
a 32 31 9
a 31 39 7
a 39 31 17
a 32 40 8
a 40 32 4
a 33 34 12
a 34 33 5
a 33 41 15
a 41 33 18
a 34 35 13
a 35 34 9
a 34 42 13
a 42 34 16
a 35 36 3
a 36 35 10
a 35 43 1
a 43 35 4
a 36 37 11
a 37 36 12
a 36 44 11
a 44 36 3
a 37 38 6
a 38 37 14
a 37 45 18
a 45 37 1
a 38 39 15
a 39 38 8
a 38 46 17
a 46 38 14
a 39 40 18
a 40 39 16
a 39 47 12
a 47 39 20
a 40 48 15
a 48 40 18
a 41 42 8
a 42 41 19
a 41 49 4
a 49 41 6
a 42 43 21
a 43 42 20
a 42 50 14
a 50 42 4
a 43 44 12
a 44 43 4
a 43 51 5
a 51 43 5
a 44 45 1
a 45 44 20
a 44 52 9
a 52 44 5
a 45 46 1
a 46 45 8
a 45 53 5
a 53 45 2
a 46 47 14
a 47 46 13
a 46 54 10
a 54 46 11
a 47 48 15
a 48 47 10
a 47 55 1
a 55 47 11
a 48 56 5
a 56 48 9
a 49 50 12
a 50 49 8
a 49 57 15
a 57 49 16
a 50 51 9
a 51 50 18
a 50 58 16
a 58 50 8
a 51 52 1
a 52 51 17
a 51 59 4
a 59 51 16
a 52 53 3
a 53 52 19
a 52 60 3
a 60 52 5
a 53 54 6
a 54 53 11
a 53 61 7
a 61 53 1
a 54 55 10
a 55 54 14
a 54 62 17
a 62 54 14
a 55 56 13
a 56 55 15
a 55 63 4
a 63 55 21
a 56 64 19
a 64 56 1
a 57 58 1
a 58 57 12
a 58 59 2
a 59 58 12
a 59 60 11
a 60 59 1
a 60 61 1
a 61 60 5
a 61 62 19
a 62 61 3
a 62 63 1
a 63 62 1
a 63 64 16
a 64 63 1
