p sp 64 224
a 1 2 9
a 2 1 11
a 1 9 20
a 9 1 1
a 2 3 14
a 3 2 1
a 2 10 15
a 10 2 5
a 3 4 10
a 4 3 16
a 3 11 1
a 11 3 18
a 4 5 11
a 5 4 1
a 4 12 1
a 12 4 2
a 5 6 1
a 6 5 8
a 5 13 1
a 13 5 1
a 6 7 20
a 7 6 1
a 6 14 3
a 14 6 1
a 7 8 1
a 8 7 9
a 7 15 14
a 15 7 15
a 8 16 17
a 16 8 8
a 9 10 20
a 10 9 6
a 9 17 1
a 17 9 6
a 10 11 1
a 11 10 1
a 10 18 18
a 18 10 2
a 11 12 11
a 12 11 12
a 11 19 9
a 19 11 13
a 12 13 11
a 13 12 20
a 12 20 13
a 20 12 7
a 13 14 11
a 14 13 9
a 13 21 16
a 21 13 17
a 14 15 1
a 15 14 1
a 14 22 8
a 22 14 20
a 15 16 6
a 16 15 16
a 15 23 1
a 23 15 3
a 16 24 2
a 24 16 9
a 17 18 5
a 18 17 1
a 17 25 1
a 25 17 1
a 18 19 11
a 19 18 16
a 18 26 1
a 26 18 3
a 19 20 22
a 20 19 10
a 19 27 1
a 27 19 3
a 20 21 5
a 21 20 6
a 20 28 1
a 28 20 1
a 21 22 12
a 22 21 11
a 21 29 18
a 29 21 4
a 22 23 15
a 23 22 1
a 22 30 11
a 30 22 5
a 23 24 18
a 24 23 10
a 23 31 2
a 31 23 6
a 24 32 2
a 32 24 8
a 25 26 21
a 26 25 1
a 25 33 1
a 33 25 13
a 26 27 14
a 27 26 1
a 26 34 10
a 34 26 13
a 27 28 6
a 28 27 1
a 27 35 16
a 35 27 1
a 28 29 5
a 29 28 1
a 28 36 10
a 36 28 2
a 29 30 9
a 30 29 1
a 29 37 12
a 37 29 3
a 30 31 18
a 31 30 2
a 30 38 11
a 38 30 18
a 31 32 11
a 32 31 11
a 31 39 20
a 39 31 18
a 32 40 19
a 40 32 6
a 33 34 1
a 34 33 19
a 33 41 1
a 41 33 15
a 34 35 11
a 35 34 14
a 34 42 13
a 42 34 19
a 35 36 15
a 36 35 1
a 35 43 10
a 43 35 18
a 36 37 10
a 37 36 7
a 36 44 1
a 44 36 6
a 37 38 1
a 38 37 1
a 37 45 13
a 45 37 9
a 38 39 13
a 39 38 9
a 38 46 12
a 46 38 1
a 39 40 6
a 40 39 10
a 39 47 7
a 47 39 9
a 40 48 1
a 48 40 16
a 41 42 4
a 42 41 12
a 41 49 5
a 49 41 11
a 42 43 7
a 43 42 21
a 42 50 1
a 50 42 10
a 43 44 6
a 44 43 2
a 43 51 1
a 51 43 15
a 44 45 19
a 45 44 4
a 44 52 15
a 52 44 18
a 45 46 9
a 46 45 20
a 45 53 5
a 53 45 20
a 46 47 17
a 47 46 8
a 46 54 2
a 54 46 4
a 47 48 15
a 48 47 7
a 47 55 1
a 55 47 2
a 48 56 15
a 56 48 10
a 49 50 18
a 50 49 22
a 49 57 21
a 57 49 1
a 50 51 5
a 51 50 3
a 50 58 1
a 58 50 1
a 51 52 11
a 52 51 15
a 51 59 16
a 59 51 1
a 52 53 4
a 53 52 18
a 52 60 8
a 60 52 5
a 53 54 14
a 54 53 3
a 53 61 12
a 61 53 9
a 54 55 8
a 55 54 7
a 54 62 8
a 62 54 10
a 55 56 14
a 56 55 1
a 55 63 9
a 63 55 3
a 56 64 17
a 64 56 18
a 57 58 16
a 58 57 18
a 58 59 17
a 59 58 19
a 59 60 8
a 60 59 22
a 60 61 2
a 61 60 7
a 61 62 6
a 62 61 15
a 62 63 11
a 63 62 1
a 63 64 1
a 64 63 8
