p sp 64 224
a 1 2 3
a 2 1 11
a 1 9 11
a 9 1 21
a 2 3 1
a 3 2 10
a 2 10 1
a 10 2 20
a 3 4 15
a 4 3 12
a 3 11 15
a 11 3 12
a 4 5 1
a 5 4 11
a 4 12 9
a 12 4 1
a 5 6 1
a 6 5 12
a 5 13 21
a 13 5 15
a 6 7 14
a 7 6 20
a 6 14 13
a 14 6 1
a 7 8 7
a 8 7 16
a 7 15 1
a 15 7 15
a 8 16 10
a 16 8 15
a 9 10 11
a 10 9 11
a 9 17 5
a 17 9 18
a 10 11 10
a 11 10 14
a 10 18 14
a 18 10 20
a 11 12 21
a 12 11 14
a 11 19 4
a 19 11 18
a 12 13 1
a 13 12 10
a 12 20 10
a 20 12 16
a 13 14 6
a 14 13 1
a 13 21 3
a 21 13 1
a 14 15 14
a 15 14 8
a 14 22 3
a 22 14 1
a 15 16 16
a 16 15 15
a 15 23 15
a 23 15 15
a 16 24 1
a 24 16 1
a 17 18 1
a 18 17 1
a 17 25 5
a 25 17 7
a 18 19 2
a 19 18 12
a 18 26 15
a 26 18 4
a 19 20 1
a 20 19 4
a 19 27 18
a 27 19 13
a 20 21 1
a 21 20 14
a 20 28 1
a 28 20 12
a 21 22 9
a 22 21 13
a 21 29 1
a 29 21 19
a 22 23 20
a 23 22 20
a 22 30 17
a 30 22 22
a 23 24 4
a 24 23 13
a 23 31 11
a 31 23 13
a 24 32 8
a 32 24 12
a 25 26 8
a 26 25 8
a 25 33 1
a 33 25 12
a 26 27 5
a 27 26 4
a 26 34 7
a 34 26 9
a 27 28 6
a 28 27 6
a 27 35 1
a 35 27 17
a 28 29 12
a 29 28 3
a 28 36 1
a 36 28 1
a 29 30 3
a 30 29 4
a 29 37 18
a 37 29 17
a 30 31 19
a 31 30 15
a 30 38 9
a 38 30 18
a 31 32 1
a 32 31 2
a 31 39 13
a 39 31 7
a 32 40 12
a 40 32 1
a 33 34 4
a 34 33 7
a 33 41 14
a 41 33 7
a 34 35 1
a 35 34 14
a 34 42 11
a 42 34 10
a 35 36 5
a 36 35 6
a 35 43 4
a 43 35 1
a 36 37 14
a 37 36 11
a 36 44 10
a 44 36 1
a 37 38 1
a 38 37 12
a 37 45 13
a 45 37 20
a 38 39 18
a 39 38 8
a 38 46 7
a 46 38 3
a 39 40 8
a 40 39 16
a 39 47 1
a 47 39 11
a 40 48 4
a 48 40 22
a 41 42 17
a 42 41 18
a 41 49 12
a 49 41 1
a 42 43 21
a 43 42 1
a 42 50 4
a 50 42 1
a 43 44 1
a 44 43 19
a 43 51 12
a 51 43 3
a 44 45 14
a 45 44 19
a 44 52 18
a 52 44 5
a 45 46 4
a 46 45 8
a 45 53 16
a 53 45 5
a 46 47 9
a 47 46 16
a 46 54 16
a 54 46 16
a 47 48 10
a 48 47 7
a 47 55 9
a 55 47 3
a 48 56 3
a 56 48 2
a 49 50 13
a 50 49 8
a 49 57 11
a 57 49 8
a 50 51 17
a 51 50 4
a 50 58 12
a 58 50 1
a 51 52 4
a 52 51 20
a 51 59 15
a 59 51 21
a 52 53 1
a 53 52 17
a 52 60 10
a 60 52 1
a 53 54 7
a 54 53 7
a 53 61 2
a 61 53 18
a 54 55 1
a 55 54 15
a 54 62 6
a 62 54 16
a 55 56 15
a 56 55 12
a 55 63 1
a 63 55 8
a 56 64 12
a 64 56 20
a 57 58 10
a 58 57 1
a 58 59 12
a 59 58 20
a 59 60 13
a 60 59 1
a 60 61 9
a 61 60 15
a 61 62 17
a 62 61 15
a 62 63 1
a 63 62 13
a 63 64 4
a 64 63 21
